*Heading
** Job name: TopOpt-Job Model name: Model-1
** Generated by: Abaqus/CAE 2024.HF2
*Preprint, echo=NO, model=NO, history=NO, contact=NO
** ----------------------------------------------------------------
** 
** PART INSTANCE: Airfoil-1
** 
*Node
      1,  0.404573649, 0.0106735565
      2,  0.400949985, 0.0070499056
      3,  0.395999998, 0.00572355697
      4,  0.391049981, 0.0070499056
      5,  0.387426347, 0.0106735565
      6,  0.386099994, 0.0156235574
      7,  0.387426347, 0.0205735564
      8,  0.391049981, 0.0241972078
      9,  0.395999998, 0.0255235564
     10,  0.400949985, 0.0241972078
     11,  0.404573649, 0.0205735564
     12,  0.405900002, 0.0156235574
     13,  0.206573635, 0.0106735565
     14,  0.202949986, 0.0070499056
     15,  0.197999984, 0.00572355697
     16,  0.193049982, 0.0070499056
     17,  0.189426333, 0.0106735565
     18,   0.18809998, 0.0156235574
     19,  0.189426333, 0.0205735564
     20,  0.193049982, 0.0241972078
     21,  0.197999984, 0.0255235564
     22,  0.202949986, 0.0241972078
     23,  0.206573635, 0.0205735564
     24,  0.207899988, 0.0156235574
     25,  0.989739835, 0.0020842636
     26,  0.988452852, 0.00309589249
     27,  0.985638022, 0.00343888323
     28,  0.975661576, 0.00305655017
     29,   0.96590513, 0.00520772254
     30,  0.960970163, 0.00600824039
     31,  0.951078176, 0.00747474469
     32,  0.946144581, 0.00828636438
     33,  0.936264098, 0.00982850976
     34,  0.926375151, 0.0113222469
     35,  0.921430528, 0.0120548373
     36,  0.911531627, 0.0134785604
     37,  0.906579554, 0.0141701875
     38,  0.896669626, 0.0155091705
     39,  0.891711414, 0.0161548592
     40,  0.881788492, 0.0173953231
     41,  0.876823723, 0.0179886576
     42,  0.866887569, 0.0191178173
     43,  0.856942892, 0.0201696735
     44,  0.851967812, 0.0206688754
     45,  0.842012942, 0.0216194335
     46,  0.837033451, 0.0220730379
     47,   0.82707119, 0.0229424946
     48,  0.822088599, 0.0233605932
     49,  0.812121212, 0.0241691545
     50,  0.807136536, 0.0245618634
     51,   0.79716593, 0.0253297146
     52,  0.787194073, 0.0260817502
     53,  0.782207847, 0.0264539868
     54,  0.772234976, 0.0271925926
     55,  0.767248392, 0.0275594145
     56,  0.757274926, 0.0282891896
     57,  0.752288043, 0.0286526084
     58,  0.742314219, 0.0293776523
     59,  0.737327218, 0.0297397319
     60,  0.727353334, 0.0304641612
     61,   0.71737957,  0.031190427
     62,  0.712392807,  0.031554874
     63,  0.702419519, 0.0322872624
     64,  0.697432995, 0.0326551199
     65,  0.687460065, 0.0333932415
     66,  0.682473719, 0.0337630287
     67,  0.672483027, 0.0345043205
     68,  0.662474453, 0.0352460258
     69,  0.657470107, 0.0356159881
     70,  0.647461176, 0.0363530479
     71,  0.642456532, 0.0367197096
     72,  0.632446945, 0.0374482051
     73,  0.627442002, 0.0378096029
     74,  0.617431521, 0.0385256149
     75,  0.612425983, 0.0388797894
     76,   0.60241437, 0.0395793915
     77,  0.597408235, 0.0399243794
     78,  0.587395191, 0.0406036489
     79,  0.577381134,  0.041267179
     80,  0.572373629, 0.0415924974
     81,  0.562357843, 0.0422291458
     82,  0.557349443, 0.0425400361
     83,  0.547331691, 0.0431458727
     84,  0.542322338, 0.0434403718
     85,  0.532302558,  0.044011455
     86,  0.527292132, 0.0442875996
     87,  0.517270207, 0.0448199883
     88,  0.507246852, 0.0453244224
     89,  0.502234638,  0.045565594
     90,  0.492209107, 0.0460246652
     91,   0.48719582, 0.0462423898
     92,  0.477168351, 0.0466569364
     93,  0.472154289, 0.0468564816
     94,  0.462125838, 0.0472466275
     95,  0.457111537, 0.0474398248
     96,  0.447083026, 0.0478290617
     97,  0.437055022,  0.048230391
     98,  0.432041347, 0.0484393053
     99,  0.422014892, 0.0488779657
    100,  0.417002052, 0.0491056219
    101,  0.406976521, 0.0495651849
    102,  0.401963592, 0.0497910753
    103,  0.391936779, 0.0502213612
    104,  0.386922717, 0.0504202098
    105,  0.376892835, 0.0507712327
    106,  0.366860449, 0.0510413647
    107,  0.361843407, 0.0511397682
    108,  0.351808161, 0.0512626171
    109,  0.346790195, 0.0512894094
    110,  0.336754203,  0.051279068
    111,  0.331736296, 0.0512441061
    112,   0.32170105, 0.0511200763
    113,  0.316683769, 0.0510331877
    114,  0.306650102, 0.0508151129
    115,  0.296617717, 0.0505452491
    116,  0.291601986, 0.0503936224
    117,  0.281571418, 0.0500624068
    118,  0.276556522,  0.049885001
    119,  0.266527414, 0.0495120026
    120,  0.261513114,  0.049318552
    121,  0.251484871, 0.0489233285
    122,  0.246470869, 0.0487223007
    123,  0.236443341, 0.0483092032
    124,  0.226416737, 0.0478741154
    125,  0.221403912, 0.0476455688
    126,  0.211379588, 0.0471610352
    127,  0.206368208, 0.0469028577
    128,   0.19634746, 0.0463492163
    129,  0.191338271, 0.0460515618
    130,  0.181322828, 0.0454091243
    131,  0.176316828, 0.0450621471
    132,  0.166308939, 0.0443112254
    133,  0.156307653, 0.0434770696
    134,  0.151309952, 0.0430260599
    135,   0.14132145,  0.042050764
    136,  0.136331126, 0.0415243208
    137,  0.126359612,  0.040388491
    138,  0.121378995, 0.0397770107
    139,  0.111429609, 0.0384615622
    140,  0.106461518, 0.0377554931
    141, 0.0965403616, 0.0362417959
    142, 0.0915887281, 0.0354283638
    143, 0.0817090571, 0.0336645953
    144, 0.0718707517, 0.0316834338
    145, 0.0669714957, 0.0305983759
    146, 0.0572232269, 0.0282137729
    147, 0.0523792394, 0.0269039795
    148, 0.0427657366, 0.0240247715
    149,  0.038001895,  0.022446787
    150, 0.0285833068, 0.0189844985
    151, 0.0239322707, 0.0171006843
    152, 0.0147889964, 0.0129679898
    153, 0.0062495782, 0.00772849889
    154, 0.00262797391, 0.00426206086
    155, 0.000409991597, 0.00170716376
    156, -4.32490197e-06, 7.31488035e-05
    157, 0.000798883557, -0.00142506917
    158, 0.00357123581, -0.00343927532
    159, 0.00812808797, -0.0055223587
    160, 0.0177931748, -0.0081432797
    161, 0.0227437504, -0.00894243084
    162, 0.0327040479, -0.0101011293
    163, 0.0376934484, -0.0105976639
    164, 0.0476854593, -0.0114459563
    165, 0.0576913059, -0.0121141206
    166, 0.0626979098, -0.012387746
    167,  0.072716549, -0.0128238257
    168, 0.0777278543, -0.0129910996
    169, 0.0877530202, -0.0132356184
    170, 0.0927664489, -0.0133174872
    171,  0.102794178, -0.0134121077
    172,  0.107808247, -0.0134294471
    173,  0.117836438, -0.0134164086
    174,  0.127864435, -0.0133527974
    175,  0.132878304, -0.0133046964
    176,  0.142905697, -0.0131772691
    177,  0.147919178, -0.0130984867
    178,  0.157945648, -0.0129124792
    179,  0.162958622, -0.0128058577
    180,  0.172983974, -0.0125669222
    181,  0.177996337, -0.0124352314
    182,  0.188020453, -0.0121489484
    183,  0.198043719, -0.011834193
    184,  0.203055039, -0.0116669107
    185,  0.213077024, -0.0113140792
    186,  0.218087718, -0.0111291464
    187,   0.22810851, -0.0107437875
    188,  0.233118638, -0.0105439778
    189,  0.243138358, -0.0101316338
    190,  0.248147979, -0.00991971511
    191,   0.25816679, -0.00948592089
    192,  0.268185139, -0.00904089864
    193,  0.273194134, -0.00881494302
    194,  0.283211917, -0.00835768878
    195,  0.288220704, -0.00812698714
    196,  0.298238158, -0.00766277406
    197,  0.303246856, -0.00742977625
    198,  0.313237339, -0.00696451496
    199,  0.318219155, -0.00673275813
    200,  0.328182876, -0.00627099769
    201,  0.338146776, -0.00581324659
    202,   0.34312883, -0.00558650214
    203,  0.353093177, -0.00513853133
    204,    0.3580755, -0.00491780648
    205,  0.368040472, -0.0044841324
    206,  0.373023152, -0.00427169027
    207,   0.38298893, -0.00385682355
    208,  0.392955333, -0.0034570382
    209,  0.397938788, -0.00326345046
    210,  0.407906175, -0.00288940617
    211,  0.412890136, -0.00270868978
    212,  0.422858387, -0.00235832692
    213,  0.427842677, -0.00218813121
    214,  0.437811583, -0.00185634417
    215,  0.442796141, -0.00169418962
    216,  0.452765495, -0.00137596752
    217,  0.462735027, -0.00106400659
    218,  0.467719853, -0.000909677998
    219,  0.477689534, -0.000602933229
    220,   0.48267439, -0.000449959509
    221,  0.492644101, -0.000143421057
    222,  0.497628927, 1.06986181e-05
    223,   0.50759846, 0.00032199017
    224,  0.517567933, 0.000637124293
    225,  0.522552609, 0.000795430213
    226,  0.532522023, 0.00111198239
    227,    0.5375067, 0.0012696156
    228,  0.547476232, 0.00158206618
    229,  0.552461088, 0.00173627061
    230,  0.562430859, 0.00203910563
    231,  0.567415893, 0.00218712306
    232,  0.577386141, 0.00247482653
    233,  0.587356806, 0.00274937646
    234,  0.592342257, 0.00288095372
    235,  0.602313519, 0.00313117821
    236,  0.607299328, 0.00324920658
    237,  0.617271304, 0.00346960546
    238,  0.622257471, 0.00357135013
    239,  0.632230163, 0.00375649123
    240,  0.642203271, 0.00391894672
    241,  0.647189915, 0.00399300363
    242,  0.657163441, 0.00412974227
    243,  0.662150204, 0.00419357466
    244,  0.672123909, 0.00431505218
    245,  0.677110732, 0.00437385589
    246,  0.687084496, 0.00449047796
    247,  0.692071319, 0.00454946188
    248,  0.702045023, 0.0046716556
    249,  0.712018549, 0.00480328081
    250,  0.717005253, 0.00487425178
    251,  0.726978481, 0.00502828183
    252,  0.731965005, 0.00511108479
    253,  0.741937935, 0.00528467074
    254,  0.746924341, 0.00537388911
    255,  0.756897092, 0.0055536069
    256,  0.766869962, 0.00573009765
    257,  0.771856427, 0.00581528665
    258,  0.781829596, 0.00597587368
    259,  0.786816239, 0.0060497974
    260,  0.796789765, 0.00618121773
    261,  0.801776648, 0.00623724284
    262,   0.81175071, 0.00632624049
    263,  0.821724951, 0.00637965463
    264,  0.826712132, 0.00639150711
    265,  0.836686552, 0.00638297759
    266,  0.841673732, 0.00636160979
    267,  0.851647794, 0.00628217449
    268,  0.856634676, 0.00622312119
    269,  0.866607785, 0.00606387341
    270,  0.871593952, 0.00596260745
    271,  0.881565273, 0.00571471173
    272,  0.891534925, 0.0054062414
    273,  0.896519065, 0.00523054739
    274,  0.906485617, 0.00483933883
    275,  0.911468208, 0.00462460238
    276,  0.921432436, 0.00415927265
    277,   0.92641294, 0.00391218252
    278,  0.936373174, 0.00338048022
    279,  0.946331859, 0.00282085408
    280,  0.951311707, 0.00255551049
    281,  0.961258352, 0.00181053102
    282,  0.966235518, 0.00150661985
    283,  0.976194024, 0.00134616927
    284,  0.985790968, -0.00133102364
    285,  0.988298655, -0.00163529394
    286,  0.989476442, -0.00122512539
    287,  0.989892721, -0.000602686952
    288,   0.99000001, 0.000626783702
    289,  0.410661906, 0.0129938489
    290,  0.419399023,  0.014414059
    291,  0.429957569, 0.0133793894
    292,  0.438263267, 0.0152689721
    293,  0.447064668, 0.0121310055
    294,  0.460565269, 0.0139768422
    295,  0.470901519, 0.0156985633
    296,  0.484988004, 0.0159870628
    297,  0.493572921, 0.0127926879
    298,  0.502876341, 0.0136902751
    299,  0.512757719, 0.0134076672
    300,  0.521651268, 0.0127004609
    301,  0.542031765, 0.0151188169
    302,  0.551296413, 0.0148673803
    303,  0.560839891, 0.0149513753
    304,  0.570495546, 0.0151362214
    305,   0.58081311, 0.0167499352
    306,    0.5913589, 0.0157437716
    307,  0.601676106,  0.016930107
    308,  0.611725152, 0.0155322934
    309,  0.621409059, 0.0129661085
    310,  0.631170034, 0.0124300076
    311,  0.640687704, 0.0134335235
    312,   0.65102154, 0.0139008127
    313,  0.662144721, 0.0149948932
    314,  0.672644794, 0.0130685419
    315,  0.682100177, 0.0133824162
    316,  0.693549514, 0.0144364703
    317,  0.703955889, 0.0138398949
    318,  0.719910324, 0.0125520015
    319,  0.736254752, 0.0152719133
    320,  0.746760547, 0.0148729058
    321,  0.756829679,  0.014639168
    322,  0.766816616, 0.0144565431
    323,  0.776698649, 0.0142888939
    324,  0.786192596, 0.0143685956
    325,    0.8016904, 0.0155757368
    326,   0.81176734, 0.0152120572
    327,  0.821708381, 0.0149016641
    328,  0.831261754, 0.0147894397
    329,  0.855057538, 0.0156031735
    330,  0.864963412, 0.0147711886
    331,  0.874817371, 0.0138130682
    332,   0.78190881, 0.0223070979
    333,  0.772009611, 0.0229251236
    334,  0.762045503, 0.0234567579
    335,  0.752052724, 0.0239946954
    336,  0.742033958, 0.0246005431
    337,  0.727007926, 0.0218636561
    338,  0.716789663, 0.0217587817
    339,  0.705962121, 0.0227791648
    340,  0.695887506, 0.0238369387
    341,   0.68634212, 0.0250241999
    342,  0.664894342, 0.0200857352
    343,  0.656015515, 0.0224734508
    344,  0.642725468, 0.0235783998
    345,  0.632040679, 0.0219593737
    346,  0.621338069, 0.0233306475
    347,  0.610169351, 0.0247272961
    348,  0.600048661, 0.0228848383
    349,  0.588413656, 0.0250401068
    350,  0.578857541, 0.0229927097
    351,  0.569987774, 0.0236379188
    352,  0.560490608, 0.0238001663
    353,   0.55099225, 0.0238199458
    354,  0.539034307, 0.0247929096
    355,  0.523291588, 0.0210397672
    356,  0.514384151, 0.0215296261
    357,  0.502197027, 0.0227308143
    358,  0.492648929, 0.0223952532
    359,  0.485204518, 0.0215502139
    360,  0.472703397, 0.0232465919
    361,  0.462649226, 0.0243784878
    362,  0.453481287, 0.0226047579
    363,  0.442852557, 0.0215152092
    364,  0.432017207,  0.023328539
    365,  0.420531243, 0.0225764159
    366,  0.409519255, 0.0223397408
    367,  0.366895676, 0.00434329687
    368,   0.35742107, 0.00397189334
    369,  0.376674891, 0.0156935547
    370,  0.347898811, 0.00334355375
    371,  0.366601616,  0.013316201
    372,  0.338838965, 0.00713582151
    373,  0.356740326, 0.0129973032
    374,  0.324240863, 0.00637073535
    375,   0.34744212, 0.0120317535
    376,  0.313337445, 0.00853365473
    377,  0.338445276,  0.015392011
    378,  0.303251594, 0.00820974354
    379,  0.324415743, 0.0151681062
    380,  0.295828491, 0.00451277196
    381,  0.281242013, 0.00737295859
    382,  0.302258909, 0.0141624818
    383,  0.272018254, 0.00549770473
    384,  0.293806851, 0.0158591215
    385,  0.262702405, 0.0045450516
    386,  0.283795238, 0.0150566427
    387,  0.253044963, 0.00446420722
    388,  0.274605095, 0.0154365245
    389,  0.242470726, 0.00505361054
    390,  0.262327462,  0.012750648
    391,  0.228813902, 0.00684258016
    392,  0.253983229, 0.0132914269
    393,  0.217388973, 0.00365132396
    394,  0.243669733, 0.0149333691
    395,  0.210066065, 0.00607335567
    396,  0.229686648, 0.0133754313
    397,  0.222354338, 0.0182860661
    398,  0.374784559, 0.0225585941
    399,  0.367168367, 0.0232371017
    400,   0.35543415, 0.0220073238
    401,  0.346910983, 0.0205629654
    402,  0.334897548, 0.0224822294
    403,  0.324328512, 0.0222185161
    404,   0.31653136, 0.0252156574
    405,  0.304197192, 0.0247764438
    406,  0.293016672, 0.0216855593
    407,  0.285363078, 0.0215062015
    408,   0.27387017, 0.0202283245
    409,  0.261574775, 0.0216289107
    410,  0.251542687, 0.0219490416
    411,  0.243586093, 0.0218660794
    412,  0.231038213, 0.0237672124
    413,  0.219766095,  0.023564579
    414,   0.20995003, 0.0261948239
    415,  0.642257869, 0.0321951993
    416,  0.632215202, 0.0324564651
    417,  0.622021973, 0.0331016742
    418,  0.611876369,  0.034033563
    419,  0.601286352, 0.0307552181
    420,   0.59089148, 0.0299563035
    421,  0.580647588, 0.0315719694
    422,  0.570814312,  0.032403782
    423,  0.560983419,  0.032871794
    424,   0.55099225, 0.0331659093
    425,  0.541044712, 0.0339602493
    426,  0.526269078, 0.0308594927
    427,  0.516747117, 0.0307907257
    428,  0.506887138, 0.0316145085
    429,  0.497069031, 0.0317516029
    430,  0.486884624, 0.0311993863
    431,  0.475630909, 0.0322103649
    432,  0.466352314, 0.0331940614
    433,  0.456617802, 0.0329794288
    434,   0.44007501, 0.0329138301
    435,  0.428284883, 0.0318900049
    436,  0.421346605,  0.032976646
    437,  0.411482334, 0.0322532877
    438,  0.398860395, 0.0331715234
    439,  0.390655786, 0.0324465446
    440,  0.378163248, 0.0339759402
    441,  0.368234485, 0.0340875685
    442,   0.35852313, 0.0321505591
    443,  0.347592533, 0.0309262481
    444,  0.336835474, 0.0311826728
    445,  0.326065272, 0.0320594758
    446,  0.313542604, 0.0325370282
    447,  0.303918004,  0.031288106
    448,  0.293659031, 0.0325514451
    449,  0.283327371, 0.0298860222
    450,  0.273960441, 0.0301735513
    451,    0.2648004, 0.0311414991
    452,  0.255322456, 0.0307343584
    453,  0.243601933, 0.0317623504
    454,  0.231227905, 0.0332007743
    455,  0.220736817, 0.0343724526
    456,  0.207774848, 0.0310766529
    457,   0.19933936, 0.0334518552
    458,  0.188115209, 0.0321457088
    459,  0.176852927, 0.0313784368
    460,  0.167823672, 0.0315665752
    461,  0.157612219, 0.0342260078
    462,  0.147674829, 0.0329859369
    463,  0.137716472,   0.03194502
    464,  0.128030747, 0.0309513547
    465,  0.117302574, 0.0340552628
    466,  0.107249849, 0.0320562869
    467, 0.0969379321, 0.0305275731
    468, 0.0628836006, 0.0249652471
    469, 0.0728549585, 0.0220291037
    470,   0.08713644, 0.0247348212
    471, 0.0959635824, 0.0198424812
    472,  0.106124394,  0.020540541
    473,  0.114769705, 0.0232631024
    474,  0.125992388, 0.0209879559
    475,  0.139087275, 0.0220024623
    476,  0.149382696, 0.0235895496
    477,  0.159575418, 0.0250629503
    478,  0.166706666, 0.0220727567
    479,  0.176307142,  0.022268489
    480, 0.0124300728, 0.00678898487
    481, 0.0224705283, 0.00640101358
    482, 0.0314404927, 0.00375336804
    483, 0.0422712751, 0.00594848813
    484,  0.062938869, 0.00590020046
    485, 0.0727315322, 0.00459175417
    486, 0.0818852484, 0.00547941821
    487, 0.0922436938, 0.00687531801
    488,  0.103511818, 0.00670915376
    489,  0.118035413, 0.00300415768
    490,  0.127381563, 0.00504738931
    491,  0.137465119, 0.00520651508
    492,  0.147182018, 0.00511374651
    493,  0.157245889, 0.00553233409
    494,  0.167506963, 0.00556910271
    495,  0.178038687, 0.00697492482
    496,  0.187112778, 0.00608088588
    497,  0.374938965, 0.00486526731
    498,  0.411581933, 0.00537591707
    499,  0.418653071, 0.00576717686
    500,  0.428762496, 0.00559481001
    501,   0.43801862, 0.00651318254
    502,  0.452513129, 0.00321014039
    503,  0.467180282, 0.00451187603
    504,  0.477952689, 0.00663597742
    505,  0.488356441, 0.00434648851
    506,   0.49790886, 0.00435015932
    507,  0.507647872, 0.00466151536
    508,  0.517405033, 0.00475787558
    509,  0.527180254, 0.00532402843
    510,  0.537066162, 0.00608354248
    511,  0.177601308, 0.0146334143
    512,  0.167539701, 0.0137919672
    513,  0.157284275, 0.0154843424
    514,  0.146388054, 0.0137872715
    515,  0.137745962,  0.010465296
    516,  0.125385925, 0.0147989448
    517,  0.114694618, 0.0137787405
    518,  0.105758063, 0.0113723027
    519, 0.0941224769,  0.010903161
    520, 0.0871322677, 0.0158115383
    521, 0.0748371705, 0.0129339956
    522, 0.0608562864, 0.0155200707
    523, 0.0522271022, 0.0107141677
    524, 0.0403743759, 0.0111868093
    525, 0.0341741033, 0.0151203908
    526,  0.507110059, 0.0407093801
    527,  0.497057736,  0.041039478
    528,  0.486906856, 0.0412150957
    529,  0.476855725, 0.0417088456
    530,  0.466839641, 0.0423012786
    531,  0.456767201,  0.042549964
    532,  0.446617931, 0.0428047851
    533,  0.430770695, 0.0395427682
    534,  0.420508981, 0.0398747995
    535,  0.410687655, 0.0411735587
    536,  0.400494695, 0.0412927642
    537,  0.391610831, 0.0412162207
    538,  0.380672127,  0.042012196
    539,  0.371582061, 0.0425378904
    540,  0.362074584, 0.0420543067
    541,  0.352076262, 0.0414877571
    542,  0.341833323,  0.041317381
    543,  0.331620395, 0.0414717421
    544,  0.321743459, 0.0417882428
    545,    0.3071841, 0.0409256741
    546,  0.296518773, 0.0383027941
    547,  0.285345525,   0.03968798
    548,  0.275376529, 0.0400670618
    549,  0.265601873, 0.0401506238
    550,  0.255631745, 0.0399569534
    551,  0.241375044, 0.0426893644
    552,  0.230443344,  0.042771183
    553,  0.220869988, 0.0434482247
    554,  0.211424097, 0.0428538546
    555,  0.200911209, 0.0409761518
    556,  0.191018552, 0.0420229882
    557,  0.181672245, 0.0418098755
    558,  0.023984246, -0.00436436944
    559, 0.0335674658, -0.00564262923
    560, 0.0433731824, -0.005956362
    561, 0.0537475049, -0.00315250712
    562, 0.0630928203, -0.00362132606
    563, 0.0727727935, -0.0038565651
    564, 0.0826271549, -0.00380224572
    565, 0.0926372632, -0.00358714769
    566,  0.102979735, -0.00370974327
    567,  0.117918372, -0.00455969386
    568,  0.127606511, -0.00426614098
    569,  0.137517184, -0.00409947196
    570,  0.147496492, -0.00389239192
    571,  0.157567739, -0.00360136922
    572,  0.167782605, -0.00319868536
    573,  0.179105401, -0.00355004263
    574,  0.192410722, -0.00583863398
    575,  0.200461939, -0.00283731543
    576,  0.210711822, -0.00433219736
    577,  0.218882874, -0.00642665802
    578,  0.228298515, -0.00597729441
    579,  0.238248423, -0.005732744
    580,  0.248051688, -0.00513694808
    581,  0.263026148, -0.00456529995
    582,  0.272957295, -0.00397395296
    583,  0.282985598, -0.00313091185
    584,  0.293037504, -0.0032153877
    585,  0.302868843, -0.00252463878
    586,  0.313140035, -0.00133550586
    587,  0.980653644, 0.00306847645
    588,   0.97076261, 0.00402942579
    589,  0.956018269, 0.00670179958
    590,  0.941206455, 0.00907088257
    591,  0.931320488, 0.0105779432
    592,   0.91648221, 0.0127734588
    593,  0.901625693, 0.0148473838
    594,  0.886750996, 0.0167838112
    595,  0.871856749, 0.0185630657
    596,  0.861916184, 0.0196530148
    597,  0.846991062, 0.0211517531
    598,  0.832052827, 0.0225136839
    599,  0.817105234,  0.023769103
    600,  0.802151442, 0.0249483418
    601,  0.792180121, 0.0257071611
    602,  0.777221501, 0.0268241856
    603,  0.762261689, 0.0279248692
    604,  0.747301161, 0.0290153548
    605,  0.732340276, 0.0301018283
    606,  0.722366452, 0.0308269467
    607,  0.707406104, 0.0319204889
    608,   0.69244653,  0.033023864
    609,  0.677487314, 0.0341330133
    610,   0.66747874, 0.0348753966
    611,  0.652465641, 0.0359850675
    612,  0.637451828, 0.0370848328
    613,  0.622436821,  0.038168814
    614,  0.607420325, 0.0392311215
    615,  0.592401862, 0.0402658731
    616,  0.582388282, 0.0409374908
    617,  0.567365885, 0.0419132225
    618,  0.552340746,  0.042845685
    619,  0.537312627, 0.0437289737
    620,  0.522281349,  0.044557184
    621,  0.512258708,  0.045075804
    622,  0.497222066, 0.0457990579
    623,  0.482182205, 0.0464527011
    624,  0.467140108, 0.0470526181
    625,  0.452097237, 0.0476335511
    626,  0.442068934, 0.0480275452
    627,     0.427028, 0.0486554168
    628,  0.411989301, 0.0493357405
    629,  0.396950394, 0.0500107147
    630,  0.381908089, 0.0506044477
    631,  0.371876955, 0.0509177558
    632,  0.356825918, 0.0512131117
    633,  0.341772199, 0.0512945391
    634,  0.326718569, 0.0511907451
    635,  0.311666787, 0.0509311669
    636,  0.301633745, 0.0506861098
    637,  0.286586553, 0.0502323098
    638,  0.271541864, 0.0497011803
    639,  0.256498963, 0.0491219833
    640,  0.241457015, 0.0485179424
    641,   0.23142989, 0.0480949655
    642,  0.216391504, 0.0474082418
    643,  0.201357469, 0.0466326177
    644,   0.18633002, 0.0457385629
    645,  0.171312138, 0.0446965471
    646,   0.16130738,  0.043905098
    647,  0.146314472, 0.0425509848
    648,  0.131343752, 0.0409705825
    649,  0.116402209, 0.0391350724
    650,  0.101498276, 0.0370161012
    651, 0.0866445079, 0.0345710255
    652, 0.0767839029, 0.0327037945
    653, 0.0620882176, 0.0294435155
    654,  0.047559198, 0.0255090725
    655, 0.0332732536, 0.0207686182
    656, 0.0193248075, 0.0151134534
    657, 0.0103857676, 0.0105639072
    658, 0.0129023558, -0.00704827765
    659, 0.0277189109, -0.00956274848
    660,  0.042687308, -0.0110464105
    661, 0.0526870191, -0.0118007455
    662, 0.0677064508, -0.0126235094
    663, 0.0827400908, -0.0131276036
    664, 0.0977802128, -0.0133755533
    665,  0.112822354, -0.0134300468
    666,   0.12285047, -0.0133902682
    667,  0.137892067,  -0.01324612
    668,  0.152932495, -0.0130101219
    669,  0.167971388, -0.0126905674
    670,  0.183008507, -0.012295804
    671,   0.19303219, -0.0119949756
    672,  0.208066136, -0.0114934361
    673,  0.223098218, -0.0109389462
    674,  0.238128588, -0.0103398236
    675,  0.253157467, -0.00970437564
    676,  0.263176024, -0.00926466007
    677,   0.27820307, -0.00858710241
    678,  0.293229461, -0.00789526198
    679,  0.308255523, -0.00719652092
    680,  0.323201001, -0.00650150236
    681,  0.333164781, -0.0060414956
    682,  0.348110944, -0.00536151323
    683,  0.363057941, -0.00469958922
    684,  0.378005981, -0.00406250684
    685,  0.387972057, -0.00365490443
    686,  0.402922422, -0.00307423691
    687,  0.417874187, -0.00253175828
    688,  0.432827085, -0.00202089781
    689,  0.447780788, -0.00153415662
    690,  0.457750231, -0.00121934374
    691,  0.472704679, -0.000756079738
    692,  0.487659246, -0.000296880869
    693,  0.502613723, 0.00016576382
    694,  0.512583196, 0.000479209528
    695,  0.527537286, 0.000953818671
    696,  0.542491436, 0.00142641237
    697,  0.557445943, 0.00188871915
    698,  0.572400987, 0.00233246572
    699,  0.582371414, 0.00261389883
    700,  0.597327828, 0.00300832442
    701,  0.612285256, 0.00336211338
    702,  0.627243817, 0.00366698811
    703,  0.637216687, 0.00384030631
    704,  0.652176678, 0.00406307587
    705,  0.667137027, 0.00425515091
    706,  0.682097614, 0.00443213806
    707,  0.697058201, 0.00460966956
    708,  0.707031786, 0.00473597599
    709,  0.721991897, 0.00494924188
    710,   0.73695147, 0.00519682793
    711,  0.751910686, 0.00546377897
    712,  0.761883557, 0.00564262643
    713,  0.776842952, 0.00589745771
    714,  0.791802943, 0.00611849129
    715,  0.806763649, 0.00628583133
    716,  0.816737771, 0.00635772664
    717,  0.831699371, 0.00639277883
    718,  0.846660793, 0.00632817531
    719,   0.86162132, 0.00615052925
    720,  0.876579821, 0.00584631367
    721,  0.886550307, 0.00556783471
    722,  0.901502669, 0.00504139019
    723,  0.916450799, 0.00439740811
    724,  0.931393504, 0.00365429302
    725,  0.941352248, 0.00309558026
    726,  0.956288457, 0.00222961465
    727,  0.971219897, 0.00159573718
    728,  0.981024265, 0.000128447587
    729,  0.988664865, -0.000543631264
    730,  0.989137113, 0.000786653196
    731, 0.00314760604, 0.000492547755
    732, 0.0919103622, 0.0301237572
    733, 0.0082048336, 0.00126629497
    734,   0.17697826, 0.0411054529
    735,  0.318436861, -0.000911768933
    736, 0.0148471864, 0.00246983557
    737, 0.00525029516, -0.00211215951
    738,  0.102057904, 0.0309998803
    739,  0.767032444, 0.0231940988
    740, 0.0179041345, 0.00620857952
    741,  0.186253831, 0.0416996665
    742,  0.307929307, -0.00167015626
    743,  0.194473311, 0.00181875168
    744,  0.213075966, 0.0202653036
    745,   0.50209403, 0.0408982933
    746,  0.181852922, 0.0386873707
    747,  0.411229372, 0.0174489338
    748,   0.49199459, 0.0411288626
    749, 0.0969157666, 0.0250369385
    750,  0.172125027, 0.0402268581
    751,  0.522244871, 0.00489977188
    752, 0.0869734958, 0.0295694433
    753,  0.757052064, 0.0237257387
    754,  0.869905114, 0.0143249864
    755,  0.923687518, 0.00771519728
    756,  0.903971076, 0.00971559249
    757,   0.89900887, 0.0101909274
    758,  0.882519245, 0.00833498128
    759,    0.8777951, 0.00923249964
    760,  0.858233273, 0.0107081849
    761,  0.863182843, 0.0104335994
    762,  0.853274047, 0.0109891929
    763,  0.837573767,   0.01213519
    764,  0.843149245, 0.0115775969
    765,  0.848268867, 0.0112789795
    766,  0.831712425, 0.0108820191
    767,  0.826661587,  0.010661128
    768,  0.821688592, 0.0106533812
    769,  0.811717093, 0.0107673109
    770,  0.816708148, 0.0107037602
    771,   0.80671066, 0.0108477836
    772,  0.626801312, 0.00818142481
    773,  0.796582758, 0.0109745404
    774,  0.801672101, 0.0109298881
    775,  0.791490436, 0.0108305067
    776,  0.631664097, 0.0081533948
    777,  0.607023954, 0.00760083739
    778,  0.786633551, 0.0103448294
    779,  0.612024307, 0.00763886655
    780,  0.721390605, 0.00864895526
    781,  0.621896565, 0.00811363012
    782,  0.781678975, 0.0101447655
    783,   0.40371713, 0.0028319296
    784,  0.397892237, 0.00136392657
    785,  0.646529555, 0.00891581085
    786,  0.602030277, 0.00756599568
    787,   0.71251148, 0.00845231302
    788,  0.641554892, 0.0086484272
    789,  0.726142704, 0.00945209898
    790,  0.388192981, 0.00217616698
    791,  0.596981049, 0.00743190991
    792,  0.776741385, 0.0100929141
    793,  0.586868167, 0.00723494776
    794,  0.383113921, 0.00110255717
    795,  0.591915905, 0.00730957091
    796,  0.707798421, 0.00893525593
    797,  0.393473297, 0.00118241564
    798,  0.771784365, 0.0100865802
    799,  0.651602924, 0.00907091331
    800,  0.423403293, 0.00156443182
    801,   0.58184123, 0.0071399454
    802,  0.372318894, 0.000325567642
    803,  0.636608362, 0.00834435504
    804,  0.367457092, -6.44844258e-05
    805,  0.377760112, 0.00170793652
    806,   0.65679872, 0.00923536252
    807,  0.616980016, 0.00783926062
    808,  0.576792121, 0.00691950694
    809,  0.409051627, 0.00140690943
    810,  0.362617552, -0.000295842357
    811,  0.413821876, 0.000896250713
    812,  0.571757793, 0.00668222876
    813,  0.692746878, 0.00958834216
    814,   0.74168843, 0.0102418335
    815,  0.766808391,  0.010090935
    816,  0.566770852, 0.00648494065
    817,  0.357757002, -0.000529750134
    818,  0.761825144,  0.010096577
    819,  0.662072957, 0.00943536032
    820,  0.433227897, 0.00192973868
    821,  0.667217612, 0.00914354529
    822,  0.352882594, -0.000785183103
    823,  0.348025888, -0.00105934241
    824,   0.56182009, 0.00632794062
    825,   0.44285956, 0.00258612656
    826,  0.716964781, 0.0081050545
    827,   0.55687958, 0.00619524857
    828,  0.697872996, 0.00943596847
    829,  0.343173593, -0.00129290461
    830,  0.551956594, 0.00608934136
    831,  0.338330477, -0.00141538936
    832,  0.746778548, 0.0101730106
    833,   0.67722708, 0.00881752931
    834,  0.333429456, -0.00129626947
    835,  0.672266543, 0.00883615203
    836,   0.68755585, 0.00959969964
    837,  0.328560114, -0.000853767444
    838,  0.751813889, 0.0101294359
    839,    0.5470348, 0.00602799607
    840,  0.462244481, 0.00401926646
    841,  0.483457863, 0.00508974027
    842,  0.472262114, 0.00519592641
    843,  0.756824672, 0.0101094926
    844,  0.682327092, 0.00913917553
    845,  0.493128955, 0.00420607021
    846,  0.702877462, 0.0092318356
    847,  0.736489415, 0.0103230448
    848,  0.731209219,  0.010189293
    849,  0.872987986, 0.00975123886
    850,  0.868109643, 0.0101280725
    851,  0.889349639, 0.0113034733
    852,  0.894079864, 0.0106896162
    853,  0.908933222, 0.00924374163
    854,  0.918807447, 0.00823742989
    855,  0.913880467, 0.00874350592
    856,  0.860019684, 0.0151949562
    857,  0.840405583, 0.0172429774
    858,  0.836171567, 0.0183455776
    859,  0.831533492,  0.018740762
    860,  0.826744735,   0.01894111
    861,   0.82183522, 0.0191652775
    862,  0.816877723, 0.0194175821
    863,  0.811897993, 0.0196874086
    864,  0.806899846, 0.0199598186
    865,   0.80186677, 0.0202355459
    866,  0.786864638, 0.0218103584
    867,  0.796776891, 0.0205384884
    868,  0.717036784, 0.0264966041
    869,  0.776968181, 0.0226429161
    870,  0.711877286, 0.0268488489
    871,  0.701705098, 0.0277881548
    872,  0.732097387, 0.0255045313
    873,  0.686904132, 0.0291873943
    874,  0.706732988, 0.0273024123
    875,  0.696732223, 0.0282716062
    876,  0.681939781, 0.0295383949
    877,  0.747047663, 0.0242844932
    878,  0.722144663, 0.0263043195
    879,  0.691823184,  0.028755419
    880,  0.791693985, 0.0210198145
    881,  0.471836627, 0.0420480184
    882, 0.0191299561, -0.00339576183
    883, 0.0629147962, -0.00801292248
    884, 0.0580039062, -0.00779076014
    885, 0.0678304136, -0.00818917062
    886, 0.0827255622, -0.00846126303
    887, 0.0777456015, -0.00841545314
    888, 0.0877179801, -0.00847439375
    889, 0.0481870733, -0.00673358189
    890, 0.0927318037, -0.00847381633
    891, 0.0727728531, -0.00833257288
    892,  0.102835298, -0.00860242173
    893, 0.0977811068, -0.00850408711
    894,  0.107849307, -0.00874205492
    895,  0.112846971, -0.00888186041
    896,  0.122790582, -0.00892448612
    897,  0.137696847, -0.00867426209
    898,  0.127749294, -0.00883781351
    899,  0.142689452, -0.00858267024
    900,  0.132722005, -0.00875555258
    901,  0.157766879, -0.00820616633
    902,  0.117852531, -0.00895662047
    903,  0.162831768, -0.00803678669
    904,  0.152732551, -0.00834838767
    905,    0.1477146, -0.00847485568
    906,  0.167980924, -0.00780339306
    907,   0.17321226, -0.00758313015
    908,  0.178442284, -0.00782046374
    909,  0.183561996, -0.00805536099
    910,  0.188305274, -0.00852153171
    911,   0.19293946, -0.00852700416
    912,  0.198050231, -0.00708812987
    913,  0.207042322, -0.00811469834
    914,  0.214821577, -0.00570078427
    915,  0.223451495, -0.00643042568
    916,  0.253036588, -0.00494890334
    917,  0.297897398, -0.00318560353
    918, 0.0164561458, 0.00927801151
    919, 0.0390955471, 0.0167327933
    920, 0.0207351763, 0.0111039001
    921, 0.0249044187, 0.0130753405
    922,  0.053460516, 0.0220403653
    923, 0.0723804906, 0.0269068088
    924, 0.0676029921, 0.0259702746
    925, 0.0772129595, 0.0278885961
    926, 0.0820806921, 0.0288088713
    927,  0.112353072, 0.0331273414
    928, 0.0487603024, 0.0203412492
    929,  0.366784096, 0.0466919132
    930,  0.132100537, 0.0362370797
    931,  0.122215256, 0.0348858684
    932,  0.137034968, 0.0367546901
    933,  0.371688455, 0.0467075258
    934,  0.141991258, 0.0372519903
    935,  0.146975309, 0.0377594531
    936,  0.151946947, 0.0382817723
    937,  0.156918064, 0.0388199762
    938,  0.351879776, 0.0463954844
    939,  0.346840709, 0.0463418774
    940,  0.161900789, 0.0393352285
    941,  0.166985691, 0.0397890583
    942,  0.341795266, 0.0463226251
    943,  0.386409223,  0.045655407
    944,  0.331709653, 0.0464054719
    945,  0.336738825,  0.046342805
    946,  0.361863583, 0.0466089733
    947,  0.326710999, 0.0464622639
    948,  0.356894463, 0.0464914031
    949,   0.32173866, 0.0464697182
    950,   0.19575496, 0.0422223471
    951,  0.381435484, 0.0461891368
    952,  0.316750795, 0.0463911891
    953,  0.391509712,  0.045714397
    954,  0.311760932, 0.0461758934
    955,  0.206529438, 0.0423734188
    956,   0.30679968, 0.0458333865
    957,  0.376526207, 0.0465497822
    958,  0.436507165, 0.0434798449
    959,  0.301686317, 0.0453485399
    960,  0.396053642, 0.0421748646
    961,  0.216176182, 0.0429283343
    962,  0.296432316, 0.0447177216
    963,  0.291247398,  0.044717513
    964,  0.286086828,  0.044849094
    965,  0.406283915, 0.0448568277
    966,  0.225630686, 0.0431833602
    967,  0.512102485, 0.0404846258
    968,  0.521984637, 0.0400384776
    969,  0.517059088, 0.0402552634
    970,  0.281018794, 0.0449369252
    971,  0.526913226, 0.0397991613
    972,  0.531847417, 0.0395022295
    973,  0.401417434, 0.0454232879
    974,  0.271050066, 0.0449259691
    975,  0.536784887, 0.0391423777
    976,  0.541731358, 0.0387365557
    977,  0.235683322, 0.0429371633
    978,  0.546648741, 0.0383388661
    979,  0.276027471, 0.0449601188
    980,  0.551629484, 0.0380351022
    981,  0.451692939, 0.0426424146
    982,    0.5566113, 0.0377831236
    983,  0.561614871, 0.0375349373
    984,  0.566574574, 0.0372645855
    985,  0.251355022, 0.0446510203
    986,  0.571564317, 0.0369624235
    987,  0.576536775, 0.0366114937
    988,  0.581548095, 0.0361978374
    989,  0.415999234, 0.0444295667
    990,  0.586565435, 0.0357261784
    991,  0.596423984, 0.0309166871
    992,  0.606824219, 0.0345999599
    993,  0.616956651, 0.0335056409
    994,  0.627153158, 0.0327501781
    995,  0.261096418,  0.044732593
    996,  0.652110517, 0.0315799527
    997,  0.657084763, 0.0311294813
    998,  0.662134469,  0.030623246
    999,  0.667167425, 0.0302078128
   1000,  0.677014768, 0.0298557151
   1001,  0.672067046, 0.0301464051
   1002,   0.48186937, 0.0413830169
   1003,  0.426298261, 0.0441675186
   1004, 0.0439622365, 0.0185441654
   1005,  0.312974006, 0.00391353806
   1006,  0.384488583, 0.00532546407
   1007,   0.40792501, 0.00748027069
   1008,  0.381326139, 0.0112994378
   1009,  0.381125122, 0.0198059212
   1010,  0.407870173, 0.0263137408
   1011,  0.401809454,  0.029081678
   1012,  0.383752286,  0.026072748
   1013,   0.39373979, 0.0303090084
   1014,  0.202108204, 0.0302218795
   1015,  0.183194205, 0.0110075781
   1016,  0.182654798,  0.019480506
   1017,  0.186317891, 0.0255143736
   1018,  0.195069149,  0.030274488
   1019,  0.213028908, 0.0119670387
   1020,  0.323633641, -0.000512988772
   1021,  0.461819857, 0.0424586013
   1022,  0.512524903, 0.0047053853
   1023, 0.0287354533, -0.00513461465
   1024,  0.502756119, 0.00452713855
   1025,  0.182652041, 0.00711788377
   1026,  0.532054722, 0.00597383641
   1027,  0.288004309, -0.0028662663
   1028,  0.243134797, -0.00540305302
   1029, 0.0384645909, -0.0057779667
   1030,  0.931753397, 0.00654579652
   1031,  0.850074291, 0.0160241276
   1032,  0.233254656, -0.00594618265
   1033,   0.41195944, 0.0103785992
   1034, 0.0581507422, 0.0236259494
   1035,  0.205794632,  0.027853677
   1036,   0.63726145, 0.0323059149
   1037,  0.277938932, -0.00356894522
   1038,  0.267997473, -0.0043071853
   1039,  0.206038192, 0.00206098333
   1040,  0.461500555, 0.00904096849
   1041,  0.435785145, 0.0387596823
   1042,  0.205497444, -0.00402586022
   1043,  0.414877504, 0.00826132949
   1044,  0.177802384, 0.0106705539
   1045,   0.73159498,  0.020826878
   1046,  0.711270511, 0.0222075097
   1047,  0.928392828, 0.0071831136
   1048,  0.250868738,  0.040149577
   1049,  0.442761868, 0.00699172495
   1050,  0.425695062, 0.0400187112
   1051,  0.205668196, 0.0334921032
   1052,  0.451399863, 0.0376409031
   1053,  0.816748619, 0.0150575303
   1054,  0.746859014, 0.0195694007
   1055,   0.25296551, -0.000200932918
   1056,  0.184700325, -0.00347521738
   1057,  0.626934707, 0.0277713984
   1058,  0.756904125, 0.0191773158
   1059,  0.461625308, 0.0377720557
   1060,  0.234995365, 0.0379330814
   1061,  0.376309961, 0.0120323729
   1062,  0.415196568, 0.0206061602
   1063, 0.0205339044, 0.0012662136
   1064,  0.224010646, 0.0384772159
   1065,  0.879732609, 0.0131919142
   1066, 0.0680814013, 0.0212094076
   1067,  0.470963836, 0.0103926249
   1068,  0.517289102, 0.00888147298
   1069,  0.260642707, 0.0400612131
   1070,  0.471432626, 0.0373453908
   1071,  0.301877081, 0.00199759053
   1072,  0.766887724, 0.0188251194
   1073,  0.826589823, 0.0148067465
   1074,  0.507004142, 0.0361212306
   1075,  0.433463305, 0.00585355051
   1076,   0.21128422,  0.038768813
   1077,  0.722061932, 0.0219220985
   1078,  0.243001103, -0.000480678747
   1079,  0.481742084, 0.0119506307
   1080,  0.316884518,   0.04173306
   1081,   0.21486716,  0.024934195
   1082,  0.481512338, 0.0361479521
   1083,  0.845096409, 0.0164867323
   1084,   0.17353563, -0.00233893842
   1085,  0.203332499, 0.0366674513
   1086, 0.0454114266, 0.0133031625
   1087,  0.616442919, 0.0284517147
   1088,  0.142498568, -0.00401811628
   1089,  0.511972606, 0.0358632058
   1090,  0.413157672, 0.0284908116
   1091,  0.414514661, 0.0391152389
   1092,  0.751811445, 0.0147512816
   1093, 0.0256925523, 0.00975118391
   1094,  0.776769638, 0.0184624437
   1095,  0.173302129, 0.0353951231
   1096,  0.162631184, -0.00345222512
   1097,  0.507724404, 0.00913186278
   1098, 0.0776970163, 0.0231296718
   1099, 0.0531375371, -0.007395769
   1100, 0.0919263288, 0.0250566881
   1101, 0.0679143518, -0.00375305279
   1102,  0.108064465, -0.00398929603
   1103,  0.493593723, 0.00848725531
   1104,  0.691072047, 0.0244524851
   1105, 0.0583478287, -0.00352300052
   1106,  0.188230515, 0.000426881365
   1107,  0.716899693, 0.0109663764
   1108,  0.709016442, 0.0133672217
   1109,  0.741626322, 0.0150507977
   1110,  0.687773049, 0.0149271181
   1111,  0.428307742, 0.00169368146
   1112, 0.0776947886, -0.00388376787
   1113,  0.334095865, 0.00324182073
   1114,  0.551581264, 0.0104701575
   1115,  0.556417286, 0.0105261635
   1116,  0.352642834, 0.00365188043
   1117,  0.561301351, 0.0106235212
   1118,  0.566186666, 0.0107517168
   1119,  0.362209439, 0.00418322021
   1120,  0.571131527, 0.0109538632
   1121,  0.371349633, 0.00446566008
   1122,  0.576172054, 0.0112932557
   1123,  0.581344545, 0.0117363306
   1124,  0.586494207, 0.0116981333
   1125,  0.591572523, 0.0116251865
   1126,  0.596665859, 0.0117611764
   1127,  0.606892347, 0.0119096478
   1128,  0.635850489, 0.0128116319
   1129,  0.616532683,  0.012170177
   1130,    0.1328623, 0.0314771086
   1131,  0.806754351, 0.0153983692
   1132,  0.142680317, 0.0324378423
   1133, 0.0977905616, -0.00358334696
   1134, 0.0876011923, -0.00367204053
   1135,  0.152673557, 0.0335913114
   1136,  0.835120738, 0.0151155246
   1137,  0.376081675, 0.0423704498
   1138,  0.357153714, 0.0417389236
   1139,  0.162527248, 0.0349361412
   1140,  0.318266094,  0.004576643
   1141,  0.336705655, 0.0413415805
   1142,  0.132590726, -0.00416914979
   1143,  0.152540103, -0.00375481602
   1144,  0.676560223, 0.0254971478
   1145,  0.516883016, 0.0356108956
   1146,  0.521728635, 0.0354609154
   1147,  0.531390965, 0.0349945426
   1148,  0.545971215, 0.0333649404
   1149,  0.556047499,  0.033047609
   1150,  0.565932155, 0.0326788649
   1151,  0.651728392,  0.027240321
   1152,  0.656612515, 0.0267542433
   1153,  0.667098999, 0.0250491127
   1154,  0.266088516, 0.0448419154
   1155,  0.411194623, 0.0449527241
   1156,  0.256168336, 0.0446535312
   1157,  0.606155872, 0.0301399771
   1158,   0.36688599, 0.0423915982
   1159,  0.194748178, 0.0389401056
   1160,  0.491935492, 0.0363020524
   1161,  0.326660573, 0.0416410454
   1162,  0.108426392, 0.0268251933
   1163,  0.025395304, 0.000217854031
   1164,  0.233498827, -0.00160073792
   1165,  0.200553119, 0.00117672991
   1166,  0.123164423,  0.030073775
   1167,  0.270519555, 0.0401464887
   1168,  0.502856255, 0.00903100707
   1169, 0.0387708768, -0.000815197767
   1170,  0.181703746, 0.00350750983
   1171,  0.786264062, 0.0178499874
   1172, 0.0491713099, -0.00225186069
   1173,   0.26774177, 0.000363580155
   1174,  0.536872804, 0.0109467926
   1175,  0.282521695, 0.00215397659
   1176,  0.272573382, 0.000793246552
   1177,  0.642302692, 0.0277799759
   1178, 0.0548736677, 0.0174542926
   1179,  0.262861937, 4.84521843e-05
   1180,  0.698803186, 0.0141333882
   1181,  0.498087108, 0.00877329893
   1182, 0.0298002325, -0.000737885421
   1183,  0.637337029, 0.0275296383
   1184,  0.196946055, 0.0367102176
   1185,  0.223305091, -0.00230647624
   1186,  0.486733437, 0.0361540467
   1187,  0.405705005, 0.0390442833
   1188,  0.724603713, 0.0137567269
   1189,   0.41420117, 0.0127895353
   1190,  0.346986413, 0.0413329154
   1191,  0.293452978, 0.0010839774
   1192,  0.526391447, 0.0093813315
   1193,  0.113521084, 0.0281024035
   1194,  0.512538731, 0.00901413243
   1195,  0.212370887, 0.0318431035
   1196,  0.677219689, 0.0129090836
   1197,   0.68143028, 0.0253067259
   1198,  0.215890035, -0.0011553166
   1199,  0.211444572, -0.000154554175
   1200,  0.476426929, 0.0368083715
   1201,  0.207379505, 0.0385472104
   1202,  0.485435277, 0.00983869564
   1203,  0.771849513, 0.0186496843
   1204,  0.796459377, 0.0157674234
   1205,   0.49700886, 0.0363496505
   1206,  0.667735934, 0.0138364909
   1207,  0.191038743, 0.0379376598
   1208,  0.761901975, 0.0190019365
   1209,  0.521830022, 0.00885167345
   1210, 0.0592973232, 0.0193573646
   1211,  0.297447175, 0.000858208688
   1212,   0.46657747, 0.0376763679
   1213,  0.656294227, 0.0139562069
   1214,  0.376349211, 0.0189558621
   1215,  0.761831582, 0.0145450635
   1216,  0.395102948, 0.0391564518
   1217,  0.192669496, 0.0341750272
   1218,   0.75189364, 0.0193704441
   1219,  0.431443751,  0.043879319
   1220,  0.302238047, 0.0404170379
   1221,  0.645771921, 0.0139187975
   1222,  0.700835049, 0.0232874639
   1223,  0.771774113, 0.0143682817
   1224,  0.102679774, 0.0245591905
   1225,   0.62651062, 0.0129433405
   1226,  0.585630059, 0.0309235491
   1227,  0.290616035, 0.0391927883
   1228,  0.542088091, 0.00603534793
   1229,  0.438005865, 0.00224719406
   1230,  0.185678437,  0.036686372
   1231,  0.385718554, 0.0403260328
   1232,  0.421109319, 0.0442598909
   1233,  0.280325413, 0.0399289504
   1234,  0.727196574, 0.0260308702
   1235,  0.218113989, 0.0196343735
   1236,  0.214851186, 0.00808433909
   1237,  0.601811469, 0.0350370966
   1238,  0.406903386, 0.0302126091
   1239,   0.39610371, 0.0343861915
   1240,  0.181284234, 0.0236023478
   1241,  0.122749001, -0.00442872383
   1242,  0.191577375, -0.00151532888
   1243,  0.183701813, 0.0297402665
   1244, 0.0294510797, 0.0142121278
   1245,  0.646936417,   0.02768947
   1246,  0.307149678, 0.00433778716
   1247,  0.575747013, 0.0320765562
   1248,  0.675875604, 0.0208003633
   1249,  0.417295545, 0.0112426495
   1250,  0.488095671, 0.0138113108
   1251,  0.110144705,  0.022398714
   1252,  0.575417221, 0.0154744769
   1253,   0.59626776,  0.015816126
   1254,  0.586446702, 0.0160929076
   1255,  0.398384243, 0.0377810746
   1256,  0.646634459,  0.023580512
   1257,  0.546765268, 0.0104777534
   1258,  0.108604863, 0.000902186031
   1259,  0.689997375, 0.0200007856
   1260,  0.371570289, 0.0386550128
   1261,  0.179295793, 0.0275863148
   1262,  0.137446776, 0.000497820904
   1263, 0.0272597354, 0.00488269189
   1264,  0.312429428, 0.0367117077
   1265,  0.417541206, 0.0310704112
   1266,  0.677096605, 0.0167495646
   1267,  0.607175708,  0.016140487
   1268,  0.671084344, 0.0223622955
   1269,  0.380040377, 0.00674908282
   1270,  0.497980028,  0.013350456
   1271,   0.13351649, 0.0266080126
   1272, 0.0977828726, 0.00136613299
   1273,  0.699829936,  0.018745387
   1274,  0.371499956, 0.0208812915
   1275,  0.147340015, 0.000636245066
   1276,  0.332831025, 0.0100280195
   1277,  0.710416853, 0.0177390706
   1278,  0.565496027, 0.0281700101
   1279,  0.362615734, 0.0375211462
   1280, 0.0632273555, 0.000861180481
   1281,  0.669201076, 0.0183714069
   1282,  0.326502293, 0.0367480554
   1283,  0.288170189, 0.00316773658
   1284,  0.180063441, 0.000150353255
   1285, 0.0471881889, 0.0083610341
   1286, 0.0503006205, 0.0154145472
   1287,  0.531186879, 0.0115046334
   1288,  0.466296852, 0.00973010994
   1289,  0.429839581, 0.0354668535
   1290,  0.637938619, 0.0228300095
   1291, 0.0873437002, 0.00120502186
   1292,  0.722562134,  0.017711062
   1293,  0.437476337, 0.0109494356
   1294,  0.255108684, 0.0352586284
   1295,  0.157391429, 0.000958723132
   1296,    0.2766155, 0.00626395643
   1297,  0.387308091, 0.0287178736
   1298,  0.420709819, 0.0361210033
   1299,  0.456576914,  0.037719164
   1300,  0.257937074, -0.000133897396
   1301,   0.24794057, -0.000258792599
   1302,  0.371239096, 0.00868956745
   1303,  0.621625245, 0.0281261094
   1304,  0.229137555, 0.0369928926
   1305,  0.474766672, 0.0119316569
   1306,   0.78159672, 0.0182338078
   1307,  0.216279581, 0.0374333635
   1308,  0.352492809, 0.0365001447
   1309,  0.172696874, 0.00994525477
   1310,   0.42918092, 0.00947945006
   1311,  0.265197307, 0.0355495736
   1312,  0.143424064, 0.0276001506
   1313,  0.655673206, 0.0182291903
   1314,  0.501978219, 0.0317477919
   1315,  0.371526122, 0.0128524639
   1316,  0.336701542, 0.0362265483
   1317,  0.238246053, -0.00119349617
   1318,  0.171266109, 0.00137091835
   1319,   0.41540572, 0.0245035291
   1320,  0.309385389, 0.00974382181
   1321, 0.0727373734, 0.000490490464
   1322,  0.611208558, 0.0292758439
   1323,   0.40970999, 0.0357881486
   1324,  0.555757642, 0.0283987131
   1325, 0.0783934966, 0.0185763203
   1326,  0.418456852, 0.00136607978
   1327,  0.338659048, 0.00292298733
   1328,  0.601839244, 0.0120595805
   1329,  0.267394036, 0.00490817102
   1330, 0.0775553957, 0.000557984808
   1331,  0.526561916, 0.0353006758
   1332,  0.203257427, -0.00808350183
   1333,  0.210168079, -0.00771185057
   1334,  0.661664903, 0.0260784868
   1335,  0.127171129, 0.0356183797
   1336,  0.600816965, 0.0267179105
   1337,  0.228254586, -0.000556352141
   1338,  0.167266726, 0.00120344304
   1339,  0.118383363,  0.029082695
   1340,  0.615601838, 0.0161332544
   1341,  0.274693519, 0.0351698957
   1342, 0.0443617702, 0.000168456972
   1343,  0.343181759, 0.00739821093
   1344,  0.632122517, 0.0274073761
   1345,  0.736627936, 0.0201568175
   1346,  0.219626918, -0.00233421894
   1347,  0.329683274, 0.00464110356
   1348,  0.341957629, 0.0361746773
   1349,   0.50201422, 0.0362853259
   1350,  0.694761097, 0.0192213673
   1351,  0.645021975, 0.0193432346
   1352,  0.352359653, 0.00811032765
   1353,   0.36189425, 0.00874088798
   1354,  0.627200365, 0.0183299836
   1355,  0.579746485, 0.0271239579
   1356,  0.660681427, 0.0217763167
   1357,  0.299970955, 0.00564194517
   1358,  0.492098123, 0.0316087753
   1359, 0.0567734502,  0.013236573
   1360,  0.122593701, 0.000166267651
   1361,  0.127478212, 0.000397692114
   1362,  0.347248375, 0.0362047777
   1363,  0.173211828, 0.0292581078
   1364,  0.153532684, 0.0289362371
   1365,  0.387871772, 0.0358268544
   1366,  0.163326487, 0.0306284353
   1367,  0.406030059, 0.0341354124
   1368,  0.545306265, 0.0279378593
   1369,  0.284369737, 0.0346750915
   1370,  0.277451396, 0.00138530426
   1371,  0.639478445, 0.0182594433
   1372,  0.366634905, 0.00880839583
   1373,  0.300329566, 0.0340880714
   1374,  0.381916136, 0.0363498777
   1375,  0.162408516, 0.00107452739
   1376, 0.0636843517, 0.0208002292
   1377, 0.0823956057, 0.000847367453
   1378,  0.575053215, 0.0276899263
   1379, 0.0829093233, 0.0196207017
   1380, 0.0680009574, 0.000707761094
   1381,  0.530958116, 0.0305811912
   1382,  0.176347226, 0.00175503769
   1383,  0.217180297, 0.0161550716
   1384,  0.212794721, 0.00312397489
   1385,  0.331497997, 0.0362496972
   1386,  0.716686845, 0.0165643748
   1387,  0.517379165, 0.0130068222
   1388,  0.100152478, 0.0188871846
   1389,  0.357681632,   0.03695333
   1390,    0.1383892, 0.0269883648
   1391,  0.480957001, 0.0302196443
   1392,   0.37921676, 0.0241492279
   1393,  0.317121714, 0.00905650575
   1394,  0.152369633, 0.000797526969
   1395,   0.50786382, 0.0137934489
   1396, 0.0924644619, 0.0014704403
   1397,  0.321727723, 0.0369780175
   1398,  0.704992414, 0.0182985142
   1399, 0.0586206689, 0.000631486007
   1400, 0.0916048884, 0.0202140864
   1401, 0.0734943822, 0.0172299352
   1402,  0.367271662, 0.0381718427
   1403,  0.591581166, 0.0353049114
   1404,  0.128888458, 0.0265027415
   1405,  0.142351538, 0.000521718699
   1406,  0.570335746, 0.0280012786
   1407,  0.470884085, 0.0327802114
   1408,   0.59660095, 0.0270956848
   1409,  0.103268005, 0.0013880498
   1410,  0.307440341,  0.035333313
   1411,  0.375702351,  0.037872944
   1412,  0.671886384, 0.0259659458
   1413,  0.217426464,  0.029787764
   1414, 0.0544593707, 0.00109980768
   1415,  0.132530704, 0.000461457996
   1416,   0.88468504, 0.0123551721
   1417,  0.611811757,  0.011759663
   1418,  0.461597204,  0.033218421
   1419,  0.393309504, 0.0359129645
   1420,  0.521585643, 0.0308223404
   1421,  0.124271058, 0.0253669042
   1422,  0.478396922, 0.0153115559
   1423,  0.241005898, 0.0353349485
   1424,  0.423960328, 0.00550535601
   1425,  0.556081414,   0.01489593
   1426,  0.685026765, 0.0177950487
   1427,  0.741777062, 0.0198192913
   1428, 0.0376799256, 0.00406974507
   1429,  0.415771604, 0.0159289166
   1430,  0.565714061, 0.0150205642
   1431,  0.446177661, 0.0376790203
   1432,   0.17714411, 0.0185341947
   1433,   0.51180011, 0.0312422272
   1434,  0.167522669, 0.0355427675
   1435,  0.565340757, 0.0237485785
   1436,  0.132553712, 0.00509012816
   1437,  0.376660794, 0.0281494074
   1438,  0.257918239, 0.00438291533
   1439,  0.626693487, 0.0230398569
   1440,  0.224351615,  0.021875944
   1441,  0.673463583, 0.0170390252
   1442,  0.372363865,  0.035432823
   1443,  0.363603622, 0.0329937004
   1444,  0.142256528, 0.00501637533
   1445,  0.119617514, 0.0240070857
   1446,  0.067851685, 0.0157055818
   1447, 0.0491141081, 0.00403955532
   1448,  0.415996194, 0.0346968919
   1449,  0.353159547, 0.0314630195
   1450,  0.225010335, 0.00351808337
   1451,  0.605302215, 0.0258738603
   1452,  0.235496476, 0.0068030837
   1453,  0.659532547,   0.01839149
   1454,  0.342103601,  0.030948285
   1455,  0.171537489, 0.0213907138
   1456,  0.247983977, 0.00466252677
   1457,  0.384375989, 0.0328566059
   1458, 0.0632035062, 0.0125091439
   1459,  0.578052223, 0.0197918154
   1460,   0.65078783, 0.0185480658
   1461,  0.297580034, 0.0301266965
   1462,  0.172016457, 0.0179146621
   1463,  0.615961611, 0.0229797941
   1464,  0.574557841, 0.0234979354
   1465,  0.152203396, 0.00535190571
   1466,  0.546647489, 0.0192667898
   1467,  0.685745597, 0.0210461151
   1468,  0.113439202, 6.8316891e-05
   1469,  0.612925529, 0.0189153925
   1470,  0.338368326, 0.0110889692
   1471,  0.170608237, 0.0244577099
   1472,  0.222073928,  0.027786281
   1473,   0.42080763, 0.00983741693
   1474,  0.419692069, 0.0281735323
   1475,  0.294495314, 0.0102729257
   1476,  0.560680091, 0.0283175204
   1477,  0.526773274, 0.0148702692
   1478,  0.455953419, 0.0131892134
   1479,  0.372153431,  0.017175246
   1480,   0.37215209,  0.026152432
   1481, 0.0836353675,  0.015446634
   1482,  0.442533702,  0.011415082
   1483,  0.434662074, 0.0339856669
   1484,  0.275527537, 0.0109716682
   1485,  0.248999834, 0.0350374319
   1486,   0.59151113, 0.0198048186
   1487,  0.433389455, 0.00945097115
   1488,  0.314841837, 0.0121656936
   1489,  0.424609572, 0.0332598276
   1490,  0.781518519, 0.0142487381
   1491,  0.235896051, 0.0326967537
   1492,   0.49721092, 0.0271581188
   1493,    0.2602925, 0.0354877822
   1494,   0.27124539, 0.0100919586
   1495,  0.550787508, 0.0283681601
   1496,  0.620396972, 0.0185275525
   1497,  0.347732335, 0.00770591851
   1498,  0.269951195, 0.0353634171
   1499,  0.121702902, 0.00542242639
   1500,  0.296855628, 0.0135247447
   1501,  0.634549677, 0.0173552036
   1502,  0.517807007, 0.0170564782
   1503,  0.158494398, 0.0297043119
   1504,  0.492450684,  0.027028352
   1505,  0.540232182,  0.029249873
   1506,  0.279543012,  0.035001006
   1507,  0.475297153, 0.0190815944
   1508,  0.483309209, 0.0252498537
   1509,  0.457070649, 0.0282871295
   1510,  0.508164227, 0.0188946482
   1511,   0.47028029, 0.0278229695
   1512,  0.584271729,  0.026222486
   1513,  0.502660811, 0.0182725806
   1514,  0.173080772, 0.0052360855
   1515,  0.129387587, 0.0229146909
   1516,  0.492020726, 0.0173428804
   1517,  0.516591787, 0.0254696328
   1518,  0.108133778, 0.0180276763
   1519,  0.560615718, 0.0193492547
   1520,  0.111179106, 0.0183709767
   1521,  0.497519761, 0.0178733207
   1522,   0.55118984, 0.0192883983
   1523,  0.487722009,  0.019237766
   1524, 0.0587473735, 0.00410366245
   1525,  0.162330464, 0.00555866258
   1526,  0.169018254,  0.027820291
   1527,  0.513295829, 0.0176384766
   1528,  0.487750679, 0.0266365595
   1529,  0.476814449, 0.0259755664
   1530,  0.466120511, 0.0289831515
   1531,  0.068331033, 0.0052015218
   1532,  0.461821347, 0.0287489649
   1533,  0.300010324, 0.0110345464
   1534,  0.418367267,    0.0191746
   1535,  0.481956869, 0.0187883712
   1536,  0.681331933, 0.0172197092
   1537,  0.522308171, 0.0165311135
   1538,  0.526160896, 0.0267022662
   1539,  0.501998901, 0.0272504408
   1540, 0.0772508457, 0.00485012913
   1541,  0.266923785, 0.00932252035
   1542, 0.0346716791, 0.00881142821
   1543, 0.0949813277, 0.0151429642
   1544,  0.440929681, 0.0380639099
   1545,  0.279692709,  0.012104678
   1546,  0.506745696, 0.0272651259
   1547,  0.570085824, 0.0193410926
   1548,  0.538136661, 0.0202263426
   1549,  0.285506755, 0.00890520122
   1550,  0.103775017, 0.0169843603
   1551,  0.421765447, 0.0128387511
   1552,  0.059278585, 0.00957791973
   1553,  0.320940137, 0.0114359381
   1554,    0.0868074, 0.00618704828
   1555,  0.331087679, 0.0303626843
   1556, 0.0872283876, 0.0201764777
   1557,  0.321461201, 0.0318432786
   1558,  0.310102791, 0.0305150468
   1559,  0.574549556, 0.0194189809
   1560,  0.599185884, 0.0198341459
   1561,  0.144294038, 0.0228399094
   1562, 0.0977543667, 0.00603491999
   1563,  0.465449184, 0.0147823822
   1564,  0.361654729, 0.0132924821
   1565,  0.109841585, 0.0060984157
   1566,  0.541926563, 0.0106185721
   1567,  0.737027168, 0.0249982309
   1568,  0.604004025, 0.0216038674
   1569,  0.154515848,  0.024364287
   1570,  0.225044265, 0.0321419202
   1571,  0.352000445, 0.0124854455
   1572,  0.305724263, 0.0118470145
   1573,  0.289179951, 0.0339418203
   1574,  0.451361388, 0.0325623974
   1575,  0.054798957, 0.00616212003
   1576,  0.219384372, 0.0101589803
   1577,   0.48847428, 0.0225989074
   1578,  0.459402949, 0.0187982023
   1579,  0.167376727, 0.0177840479
   1580,  0.110744067, 0.0144119868
   1581,  0.432629257, 0.0288983248
   1582,  0.458115339, 0.0235431027
   1583,  0.479306966, 0.0223370083
   1584,  0.311365366, 0.0143499784
   1585,  0.291758686, 0.0126516586
   1586,  0.497350842, 0.0224762689
   1587, 0.0987491459, 0.0143371699
   1588,  0.342965245, 0.0115797035
   1589,  0.266233027, 0.0135813812
   1590,  0.232901186, 0.0279723052
   1591,  0.555881321, 0.0193347037
   1592, 0.0911074355, 0.0155924307
   1593,   0.22307542,  0.012764357
   1594,  0.510396242, 0.0228004493
   1595,  0.428481162, 0.0188947804
   1596,  0.534782588, 0.0255939756
   1597,  0.287649125, 0.0291505363
   1598,  0.424779594, 0.0207091346
   1599,  0.423140109, 0.0259898789
   1600,  0.258016229, 0.00871250965
   1601,  0.121094257, 0.0181693062
   1602, 0.0698048696, 0.0104022268
   1603,  0.446473539, 0.0174488984
   1604,  0.582901776, 0.0216326825
   1605,  0.555783868, 0.0238611884
   1606,  0.301212102, 0.0277118087
   1607,  0.334169477, 0.0153972041
   1608,  0.226510808, 0.0257645063
   1609,  0.225888997, 0.00990416296
   1610,  0.135769546, 0.0157091431
   1611,  0.452064157, 0.00786825269
   1612,  0.447432339, 0.00741984835
   1613,  0.595770478, 0.0195631459
   1614,  0.244738623, 0.0384482667
   1615,   0.46862027,  0.021028161
   1616,  0.239622161, 0.00916797295
   1617,   0.45189482, 0.0275135208
   1618,  0.250316679, 0.0299929623
   1619,  0.565445006, 0.0193513725
   1620,  0.464076787, 0.0197064504
   1621,  0.115472332, 0.0184502769
   1622,  0.248531863, 0.00936997216
   1623,  0.315642834, 0.0297437757
   1624,  0.351496547, 0.0167871397
   1625,  0.155452862, 0.0199775454
   1626,  0.132505804, 0.00963143632
   1627,  0.164620876, 0.0263391398
   1628,   0.15197891, 0.00995383505
   1629,  0.123313889, 0.0105465855
   1630,  0.521823108, 0.0261371639
   1631,  0.359715164, 0.0273727886
   1632,  0.324308544,  0.028526172
   1633,   0.16232118, 0.00991093554
   1634, 0.0978900045, 0.0101092644
   1635, 0.0858626515, 0.0114524988
   1636, 0.0764849558, 0.00904243067
   1637,  0.542439997, 0.0195469875
   1638,  0.433781743, 0.0125375269
   1639,  0.348183155, 0.0251865163
   1640,  0.333334506, 0.0257017016
   1641,   0.32809481, 0.0120746745
   1642,  0.317720622, 0.0154432254
   1643,  0.113117412, 0.00963312201
   1644,  0.145349324, 0.0182246957
   1645,   0.33728987, 0.0266775489
   1646,  0.278788239, 0.0301372856
   1647,  0.366704583,  0.017901253
   1648,  0.341834128, 0.0254318882
   1649,  0.361384124, 0.0179244764
   1650,  0.140377581, 0.0172079429
   1651,  0.327456713, 0.0260054041
   1652,  0.354164243, 0.0265598204
   1653, 0.0809290707, 0.0100454194
   1654,  0.117011733, 0.00802282989
   1655,  0.157165706, 0.0102256685
   1656,  0.090674974, 0.0113321366
   1657,  0.608525693, 0.0203921832
   1658,  0.146994367, 0.00953172427
   1659,  0.150416806,  0.019039467
   1660,  0.365104765,  0.028350383
   1661,  0.318771005,  0.027968999
   1662,  0.356264204, 0.0174474344
   1663,  0.101192378, 0.0100035667
   1664,  0.142351195, 0.00926062092
   1665,  0.260464579, 0.0264879838
   1666,   0.12821193, 0.0126762399
   1667,  0.306811124, 0.0281609911
   1668,  0.445741832, 0.0260994975
   1669,  0.546682477, 0.0235384814
   1670,  0.167540565, 0.00976923946
   1671,  0.269215614, 0.0304375552
   1672,  0.129044369, 0.0176733397
   1673,  0.369929105, 0.0300293546
   1674,  0.243691221, 0.00991088338
   1675,   0.29540208, 0.0258317199
   1676,  0.299216241, 0.0167337507
   1677,  0.278859109, 0.0159241389
   1678,  0.466749877, 0.0253786556
   1679,  0.380732119, 0.0303225648
   1680,  0.228877038, 0.0297720078
   1681,  0.441563606,  0.043077305
   1682,  0.249249607, 0.0138310669
   1683,  0.131465673, 0.0139857437
   1684,  0.360886484, 0.0226407032
   1685,  0.141820893, 0.0128900548
   1686,  0.350729793, 0.0209701806
   1687,  0.528257489, 0.0184476245
   1688,  0.151479766, 0.0145548135
   1689,  0.342778742,  0.015846435
   1690,  0.338074535, 0.0233520009
   1691,  0.162569895, 0.0140228607
   1692,  0.160675839, 0.0202568546
   1693,   0.58720696, 0.0205282774
   1694,  0.119027831,  0.012560443
   1695,   0.44767347, 0.00287708966
   1696,  0.246607959, 0.0443586633
   1697,  0.428396374, 0.0272984765
   1698,   0.30878377, 0.0202106722
   1699,  0.332568228, 0.0204828717
   1700,  0.172410846, 0.0140548907
   1701,   0.43160674, 0.0171904005
   1702,  0.282524318, 0.0253272466
   1703,  0.262521774, 0.0087835528
   1704,  0.449351728, 0.0210346226
   1705,  0.434849679, 0.0158034209
   1706,  0.232909217, 0.0102836201
   1707,  0.253384382, 0.00892154872
   1708,  0.163415074, 0.0172717683
   1709,  0.264316767, 0.0274586435
   1710,  0.438885391, 0.0277744979
   1711,  0.291617155, 0.0277785733
   1712,  0.296280116, 0.0194771774
   1713,  0.321048737, 0.0186200552
   1714,  0.290655047, 0.0177594908
   1715,  0.269125223, 0.0194951054
   1716,  0.278422862, 0.0205096696
   1717,  0.454938561, 0.0179490875
   1718,  0.264808774, 0.0177937616
   1719,  0.282361329, 0.0206824318
   1720,  0.304232448, 0.0173173919
   1721,  0.287522227, 0.0194530878
   1722,  0.518149078, 0.0210113432
   1723,  0.273477644, 0.0251149219
   1724,    0.3137151, 0.0195177142
   1725,  0.228806615, 0.0197805502
   1726,   0.29950276, 0.0234145988
   1727,  0.330120921, 0.0229478925
   1728,  0.321485579, 0.0251813587
   1729,  0.312784165, 0.0258695316
   1730,  0.237670392, 0.0139772408
   1731,  0.239212245, 0.0289166309
   1732,  0.427285731, 0.0243110675
   1733,  0.245534331,  0.027976986
   1734,  0.241235644, 0.0251774918
   1735,   0.45081386, 0.0171238929
   1736,  0.451441675, 0.0125430049
   1737,  0.457360655, 0.0035831451
   1738,  0.289734066, 0.0234969836
   1739,  0.267641902, 0.0247402824
   1740,  0.247121483, 0.0245223604
   1741,  0.435748219, 0.0185068846
   1742,  0.236326084, 0.0220509283
   1743,  0.258298963, 0.0128425416
   1744,  0.335170448, 0.0194240995
   1745,  0.327319056, 0.0192312617
   1746,  0.240205407, 0.0184813179
   1747,  0.262069613, 0.0159102269
   1748,  0.318145186, 0.0220188908
   1749,  0.278327823, 0.0253340509
   1750,  0.250582248, 0.0180611685
   1751,   0.25497964, 0.0176344831
   1752,  0.246497735, 0.0192007888
   1753,  0.437455654, 0.0229687765
   1754,  0.259187192, 0.0170411021
   1755,  0.255909711, 0.0219072402
   1756, 0.0039518699, 0.00187430112
   1757, 0.00447958289, 0.00356198126
   1758, 0.00899826456, -0.00221286109
   1759,  0.989199638, -0.000148308492
   1760,  0.987952709, 0.00059112208
   1761,  0.014115707, -0.0024649757
   1762,  0.647183597, 0.0319789462
   1763,  0.596720815, 0.0352488533
   1764,  0.396416783, 0.0458578095
   1765,  0.258033127, -0.00478608301
   1766,  0.381433964, 0.0156121356
   1767,  0.397385567, 0.0294371843
   1768,  0.190841824, 0.00394876488
   1769,  0.197364807, -0.000885273505
   1770,  0.212693721,  0.015986139
   1771,  0.190639853,  0.028004745
   1772,  0.182996079, 0.0152361123
   1773,  0.402024776,   0.03301204
   1774,  0.217526466, 0.0131848138
   1775, 0.00425857166, -0.000607916503
   1776, 0.00792611297, 0.00485979021
   1777,  0.375755548, 0.00813048892
   1778,  0.194866374, -0.00374244596
   1779,  0.185210586, 0.00237096078
   1780,  0.221860766, 0.00681764493
   1781,  0.414424837, 0.00385240931
   1782,  0.189175144,  -0.00488147
   1783,  0.790714562, 0.0159647577
   1784,  0.174941361, 0.0258502923
   1785,  0.209221423, 0.0355813615
   1786,  0.183348328, -0.000412803696
   1787,   0.17866157, 0.00420014933
   1788,  0.390953094, 0.0376025997
   1789,  0.422051191, 0.0172761828
   1790,  0.247383609, 0.0410025865
   1791,  0.181031466,     0.033574
   1792,  0.536218882, 0.0345507823
   1793,  0.456750721, 0.0083989799
   1794,  0.220584378, 0.0398915075
   1795, 0.0341569819, -0.00131547125
   1796,  0.178307071, 0.0371429995
   1797,  0.343230426, 0.00305172661
   1798, 0.0824563354, 0.0240971111
   1799,  0.311988682, 0.0413805731
   1800,  0.239112973, 0.0384946391
   1801,  0.113020584, -0.00435549067
   1802,  0.489385188, 0.00855450332
   1803,  0.730108857, 0.0156153813
   1804,  0.401088417, 0.0359020717
   1805,  0.374321014, 0.0318980627
   1806,  0.220336437, 0.0151240388
   1807,  0.221372321, 0.000800937298
   1808,  0.651279509, 0.0229163971
   1809,  0.424902886, 0.00959533732
   1810,  0.593167901, 0.0269470625
   1811,  0.425517648, 0.0143473446
   1812,  0.148493543, 0.0282575749
   1813,  0.357115209, 0.00845556427
   1814,  0.226133049, 0.0160582531
   1815,  0.425193876, 0.0363566242
   1816,  0.422882169, 0.0308034047
   1817,  0.445838094,  0.032255508
   1818,  0.171545655, 0.0320637934
   1819,  0.681084037, 0.0211857464
   1820,  0.726565063, 0.0185586568
   1821,  0.307681412, 0.0159114581
   1822,  0.297579795, 0.00809388328
   1823,   0.37956351, 0.0387717262
   1824,  0.231596366, 0.00385475811
   1825,    0.1334728, 0.0209666621
   1826,  0.592157722,  0.023786895
   1827,   0.59613812, 0.0233294796
   1828,  0.234109268, 0.00178122264
   1829,  0.303246409, 0.0366738997
   1830, 0.0293020103, 0.00933538843
   1831,  0.425728709, 0.0290407799
   1832,  0.237614557, 0.00312267267
   1833,   0.71377331, 0.0124008479
   1834, 0.0343438312, 0.00222224672
   1835,  0.335222185, 0.00680775056
   1836,  0.490275741, 0.0118094888
   1837,  0.434062392,  0.020372564
   1838,  0.291886508, 0.00704110507
   1839,  0.317073882, 0.0371649265
   1840,  0.118085377, -0.000375725969
   1841,  0.525061667,  0.012346372
   1842,  0.233183086, 0.0172911752
   1843,  0.535579503, 0.0300401952
   1844,  0.050857529, 0.00106140168
   1845,  0.631073475, 0.0159856714
   1846,  0.546679556, 0.0148903541
   1847,  0.537399888, 0.0156315397
   1848,  0.532770216,  0.016590884
   1849,  0.304868221, 0.0205781404
   1850,  0.330531269, 0.0167545993
   1851, 0.0641598329, 0.0174407009
   1852,  0.270329773, 0.0146456584
   1853,  0.286327034, 0.0248992015
   1854,   0.23603332, 0.0263667256
   1855,  0.289298773, 0.0104392804
   1856,  0.301793516, 0.0195160825
   1857,  0.347152293, 0.0162527766
   1858,  0.107080713, 0.0151998559
   1859,  0.114591703, 0.0043179309
   1860,  0.533903003, 0.0210903548
   1861,  0.529769242,  0.022172628
   1862,  0.317095369, 0.0330092758
   1863,  0.102395594, 0.0131478673
   1864,  0.338638902,  0.019625986
   1865,  0.308497995,  0.024660727
   1866,  0.127799645, 0.0093657868
   1867,  0.438197255, 0.0189405531
   1868,  0.251263559, 0.0257903524
   1869,  0.255787879, 0.0262073874
   1870,  0.260186881, 0.0310570188
   1871,  0.441105694, 0.0188023988
   1872,  0.342604727, 0.0203577653
   1873,  0.474352688, 0.0286585763
   1874,  0.526380658, 0.0233453065
   1875,  0.442191362, 0.0156686939
   1876, 0.0794982538,  0.014267589
   1877,  0.109733321, 0.0105098709
   1878,  0.543132126, 0.0238266382
   1879,  0.248361841, 0.0219818763
   1880,  0.511355102, 0.0267886259
   1881,  0.530522883, 0.0263258498
   1882, 0.0651986897, 0.00974906143
   1883, 0.0729981512, 0.00795017183
   1884,  0.506719708, 0.0231434535
   1885,  0.288788587, 0.0141201066
*Element, type=CPS3
 1, 1006,  794,  790
 2, 1822,  380, 1357
 3,  797,  784,    3
 4, 1746, 1730,  394
 5,   25,  730,  288
 6, 1441, 1266, 1248
 7, 1351, 1256,  344
 8, 1638, 1487, 1293
 9, 1816, 1489,  436
10, 1367, 1323, 1187
11, 1632,  445, 1557
12,  758,  271,  721
13, 1332,  913, 1042
14,  295, 1067, 1305
15, 1412, 1153, 1268
16,  575, 1165, 1769
17, 1171,  324, 1783
18, 1189,  289, 1033
19, 1773, 1804,  438
20, 1442, 1411, 1260
21, 1479,  369, 1214
22, 1439, 1354,  345
23, 1674, 1616,  389
24, 1469,  308, 1340
25, 1855, 1585, 1885
26, 1488,  376, 1393
27, 1496,  346, 1463
28, 1878, 1669, 1368
29, 1678, 1511, 1530
30, 1722, 1517,  356
31, 1677, 1545,  386
32, 1577,  359, 1523
33, 1837, 1753,  364
34, 1735, 1704, 1603
35, 1692, 1625,  513
36,  487,  519, 1656
37, 1481, 1635,  520
38, 1686, 1639,  401
39, 1690, 1648, 1645
40, 1849, 1856, 1720
41, 1685,  515, 1664
42, 1726,  405, 1606
43, 1744,  402, 1699
44,  729,  285,  286
45, 1785, 1076, 1201
46,  537, 1216,  960
47, 1806, 1383, 1774
48, 1807, 1346, 1185
49, 1471,  478, 1455
50,  380, 1191, 1211
51,  446, 1623, 1862
52, 1865, 1667,  405
53, 1877, 1565, 1643
54, 1884, 1510, 1594
*Element, type=CPS4R
  55,  685,  790,  794,  207
  56,  684,  805,  802,  206
  57, 1006,  790,    4,    5
  58,  797,    3,    4,  790
  59,  784,  783,    2,    3
  60,  809,  498, 1007,  783
  61,  498,  809,  811, 1781
  62,  800,  212,  213, 1111
  63,  688,  820, 1111,  213
  64,  500, 1111,  820, 1075
  65, 1049, 1482, 1293,  501
  66, 1871, 1875, 1603,  363
  67, 1817, 1668, 1617, 1574
  68,  981, 1052, 1299,  531
  69,  531,   95,  625,  981
  70,   96,  532,  981,  625
  71,  532,   96,  626, 1681
  72, 1681,  958, 1041, 1544
  73,  533, 1041,  958, 1219
  74,  435, 1581, 1483, 1289
  75, 1487, 1638,  291, 1310
  76, 1595, 1811,  291, 1701
  77, 1075, 1487, 1310,  500
  78,  686,  783,  784,  209
  79, 1061, 1777, 1269, 1008
  80,  367, 1121, 1302, 1372
  81,  368, 1119, 1353, 1813
  82,  370, 1116, 1352, 1497
  83, 1797, 1343,  372, 1327
  84, 1607, 1850, 1641, 1276
  85, 1642, 1488, 1393, 1553
  86,  378, 1246, 1320, 1572
  87, 1549, 1283, 1838, 1855
  88,  383, 1296, 1484, 1494
  89, 1494, 1541, 1329,  383
  90, 1743, 1600, 1703,  390
  91, 1456, 1622, 1674,  389
  92, 1706, 1452, 1616, 1730
  93, 1593, 1576, 1780, 1609
  94, 1019, 1770,   24,   13
  95,  395, 1236, 1019,   13
  96,  395,   13,   14, 1039
  97, 1165,   15,  743, 1769
  98,  913, 1332,  184,  672
  99, 1333,  913,  672,  185
 100,  186,  577,  914,  185
 101,  577,  186,  673,  915
 102,  578,  187,  188, 1032
 103,  579, 1317, 1164, 1032
 104, 1028,  189,  190,  580
 105,  580,  190,  675,  916
 106,  916, 1765, 1300, 1055
 107, 1600, 1438,  385, 1703
 108, 1811, 1809, 1310,  291
 109, 1189, 1033, 1043, 1249
 110,   12,    1,  289,  747
 111,    1, 1007, 1033,  289
 112,    2,  783, 1007,    1
 113, 1534, 1062,  747, 1429
 114,  289, 1189, 1429,  747
 115, 1090, 1010,  366, 1319
 116,   11,  366, 1010,   10
 117,   11,   12,  747,  366
 118, 1011,   10, 1010, 1238
 119, 1367, 1238,  437, 1323
 120,  953,  537,  960, 1764
 121,  104,  943,  953,  103
 122,  943,  104,  630,  951
 123,  537,  953,  943, 1231
 124,  631,  933,  957,  105
 125, 1137,  539, 1260, 1411
 126,  399, 1480, 1673, 1660
 127,  369, 1479, 1315, 1061
 128, 1009, 1214,  369, 1766
 129, 1008, 1766,  369, 1061
 130,  496, 1768,   16,   17
 131,   14,   15, 1165, 1039
 132,  671,  183,  912,  911
 133,  574, 1778, 1242, 1782
 134, 1768, 1106, 1242,  743
 135, 1044, 1015, 1772,  511
 136, 1455, 1462, 1432,  479
 137, 1366, 1139,  461, 1503
 138,  937,  936, 1135,  461
 139, 1132,  934,  932,  463
 140,  136,  932,  934,  135
 141,  932,  136,  648,  930
 142,  930,  648,  137, 1335
 143, 1404, 1515, 1825, 1271
 144, 1515,  474, 1672, 1825
 145, 1262, 1415, 1142,  569
 146,  897,  900,  175,  667
 147,  568,  898,  900, 1142
 148,  569,  897,  899, 1088
 149, 1088,  570, 1275, 1405
 150,  492, 1658, 1664, 1444
 151,  476, 1561, 1644, 1659
 152, 1132, 1312, 1812,  462
 153, 1016, 1772,   18,   19
 154,  511, 1772, 1016, 1432
 155,  479, 1784, 1471, 1455
 156,  461, 1139,  940,  937
 157,  647,  935,  936,  134
 158, 1017, 1240, 1016,   19
 159,  557,  746, 1230,  741
 160,  556,  129,  644,  741
 161,  130,  557,  741,  644
 162,  557,  130,  131,  734
 163,  734,  131,  645,  750
 164, 1796, 1095,  459, 1791
 165, 1627,  478, 1471, 1526
 166, 1771, 1018, 1217,  458
 167, 1243, 1017, 1771,  458
 168,   20,   21, 1018, 1771
 169, 1014,   21,   22, 1035
 170, 1081,  744, 1235,  413
 171,  397, 1440,  413, 1235
 172, 1734, 1742, 1746,  411
 173, 1731, 1491, 1590, 1854
 174,  552, 1304, 1060,  977
 175,  640,  551, 1696,  122
 176,  977,  123,  641,  552
 177,  124,  966,  552,  641
 178,  966,  553, 1794, 1064
 179, 1680, 1608,  412, 1590
 180, 1608, 1680, 1570, 1472
 181,  454, 1491, 1060, 1304
 182,   22,   23,  414, 1035
 183,  744,   23,   24, 1770
 184,  729, 1759,  730, 1760
 185,  729,  286,  287, 1759
 186,  288,  730, 1759,  287
 187,  283,  728,  587,   28
 188,  282,  727,  588,   29
 189,   29,   30,  281,  282
 190,  280,  726,  589,   31
 191,  279,  280,   31,   32
 192,  590,   33,  278,  725
 193,  724, 1030, 1047,  277
 194,   35,  854,  755,   34
 195,  854,   35,  592,  855
 196,  723,  854,  855,  275
 197,  275,  855,  853,  274
 198,  277, 1047,  755,  276
 199,  278,   33, 1030,  724
 200,   37,  756,  853,   36
 201,  593,  757,  756,   37
 202,  722,  756,  757,  273
 203,  273,  757,  852,  272
 204,  759, 1065,  331,  849
 205,  331,   41,  595,  754
 206,  754,  595,   42,  330
 207,  330,   42,  596,  856
 208,  329,  762,  760,  856
 209,  268,  760,  762,  267
 210,  760,  268,  719,  761
 211,  850,  754,  330,  761
 212,  754,  850,  849,  331
 213,  720,  759,  849,  270
 214,  851, 1416,  758,  721
 215,  594, 1416,  851,   39
 216,  329,   43,   44, 1031
 217, 1031,   44,  597, 1083
 218,  765,  718,  267,  762
 219,  764,  765, 1031, 1083
 220,  857,   45,   46,  858
 221, 1136,  328,  766,  763
 222,   47,  860,  859,  598
 223,  326, 1053,  862,  863
 224,   49,  863,  862,  599
 225,  863,  864, 1131,  326
 226,   50,  864,  863,   49
 227,  600,  865,  864,   50
 228,   51,  867,  865,  600
 229,  865,  867, 1204,  325
 230,  714,  775,  778,  259
 231,  773,  774,  325, 1204
 232,  773,  260,  261,  774
 233,  715,  771,  774,  261
 234,  769,  262,  716,  770
 235,  768,  263,  264,  767
 236,  859,  860, 1073,  328
 237,  860,   47,   48,  861
 238,  601,  880,  867,   51
 239,   53,  332,  866,   52
 240,  332,   53,  602,  869
 241,  333,   54,   55,  739
 242, 1208, 1072,  739,  334
 243,  753,   56,   57,  335
 244,  335,   57,  604,  877
 245, 1054,  877,  336, 1427
 246,  319, 1803,  848,  847
 247,  814,  253,  254,  832
 248,  320, 1109,  814,  832
 249,  321, 1092,  838,  843
 250, 1215,  322, 1072, 1208
 251,  713,  792,  798,  257
 252,  259,  778,  782,  258
 253,  778,  324, 1490,  782
 254, 1171,  866,  332, 1306
 255,   54,  333,  869,  602
 256, 1203,  333,  739, 1072
 257,  322, 1223, 1203, 1072
 258,  739,   55,  603,  334
 259,  336,   58,   59, 1567
 260, 1567,   59,  605,  872
 261, 1188, 1803, 1820, 1292
 262,  251,  789,  780,  709
 263, 1833,  787,  826, 1107
 264,  872, 1045, 1345, 1567
 265, 1234,   60,  606,  878
 266,  878,  868,  338, 1077
 267,   62,  870,  868,   61
 268,   64,  875,  871,   63
 269,  879,  608,   65,  873
 270,  608,  879,  875,   64
 271,  873,   65,   66,  876
 272,  873,  876, 1197,  341
 273, 1206,  821,  835,  314
 274,  244,  245,  833,  835
 275,  340, 1104, 1259, 1350
 276, 1259, 1467, 1426, 1110
 277, 1536, 1266, 1196,  315
 278,  609, 1000,  876,   66
 279,  610,  999, 1001,   67
 280,   67, 1001, 1000,  609
 281, 1453,  313,  342, 1356
 282, 1213,  806,  819,  313
 283,  819,  806,  242,  243
 284,   68,  998,  999,  610
 285,   69,  997,  998,   68
 286,  997,  996, 1151, 1152
 287,   71,  415, 1762,   70
 288,  415,   71,  612, 1036
 289, 1036,  612,   72,  416
 290,  416,   72,   73,  994
 291, 1057,  994,  417, 1303
 292,  309, 1225, 1354, 1496
 293,  781,  309, 1129,  807
 294,  772,  781,  238,  702
 295,  772,  776,  310, 1225
 296, 1290,  345, 1501, 1371
 297, 1183, 1036,  416, 1344
 298, 1177, 1183, 1290,  344
 299,  994, 1057, 1344,  416
 300,  613,  417,  994,   73
 301,   74,  993,  417,  613
 302, 1087,  993,  418, 1322
 303, 1129, 1340,  308, 1417
 304,  236,  701,  779,  777
 305,  235,  236,  777,  786
 306,   75,  418,  993,   74
 307,  418,   75,  614,  992
 308, 1237,   76,   77, 1763
 309,  991, 1763, 1403,  420
 310,  990,  988,  421, 1226
 311,   80,  986,  987,   79
 312,  986,  422, 1247,  987
 313,  986,   80,  617,  984
 314,  983,  423, 1150,  984
 315, 1278, 1150,  423, 1476
 316, 1430,  304, 1547, 1619
 317,  827,  830,  229,  697
 318,  824,  827,  697,  230
 319,  839,  830, 1114, 1257
 320,  816,  824,  230,  231
 321,  808,  812,  698,  232
 322,  812,  816,  231,  698
 323, 1464, 1559, 1459,  350
 324, 1378, 1247,  422, 1406
 325, 1378, 1464,  350, 1355
 326, 1150, 1278, 1406,  422
 327,   82,  982,  983,   81
 328,  980,  424, 1149,  982
 329,   83,  978,  980,  618
 330,   84,  976,  978,   83
 331,  619,  975,  976,   84
 332,  976,  425, 1148,  978
 333, 1148,  425, 1505, 1368
 334, 1846,  301, 1566, 1257
 335, 1026,  510, 1174, 1287
 336,  225,  695,  509,  751
 337,  510, 1026,  226,  227
 338,  227,  696, 1228,  510
 339,  839, 1228,  696,  228
 340, 1522, 1591, 1605,  353
 341, 1149, 1324, 1476,  423
 342,  618,  980,  982,   82
 343,   85,  972,  975,  619
 344,   86,  971,  972,   85
 345,  975,  972, 1147, 1792
 346,  426, 1381, 1147, 1331
 347,  300, 1841, 1477, 1537
 348, 1209,  751,  509, 1192
 349,  224,  225,  751,  508
 350,  620,  968,  971,   86
 351, 1145, 1146,  968,  969
 352, 1420, 1630, 1538,  426
 353,  299, 1387, 1502, 1527
 354, 1194, 1022,  508, 1068
 355,  507, 1024,  693,  223
 356,  223,  694, 1022,  507
 357, 1146, 1145,  427, 1420
 358,  526,   88,   89,  745
 359,  622,  527,  745,   89
 360,  748,   90,   91,  528
 361,  528,   91,  623, 1002
 362, 1002,  529, 1200, 1082
 363, 1529, 1391,  431, 1873
 364, 1422, 1507,  295, 1305
 365, 1067,  842,  504, 1305
 366,  217,  218,  503,  840
 367,  218,  691,  842,  503
 368,  504,  842,  691,  219
 369,  841,  504,  219,  220
 370, 1836, 1802, 1103,  297
 371,  297, 1516, 1250, 1836
 372,  429, 1358, 1504, 1492
 373, 1082, 1186,  528, 1002
 374, 1358, 1160, 1186,  430
 375,  529,   92,   93,  881
 376,  881,   93,  624,  530
 377,  881,  530, 1212, 1070
 378, 1407,  432, 1530, 1511
 379, 1615, 1620, 1563,  295
 380, 1040,  840,  503, 1288
 381,  216,  690, 1737,  502
 382,  690,  217,  840, 1737
 383, 1021,   94,   95,  531
 384,  531, 1299, 1059, 1021
 385, 1021, 1059, 1212,  530
 386, 1509, 1532, 1418,  433
 387, 1578, 1717, 1478,  294
 388,  293, 1612, 1611, 1736
 389,  215,  825, 1229,  214
 390,  825,  215,  689, 1695
 391,  501, 1229,  825, 1049
 392,   98, 1219,  958,   97
 393, 1219,   98,  627, 1003
 394, 1232,   99,  100,  989
 395,  628, 1155,  989,  100
 396,  102,  973,  965,  101
 397,  629, 1764,  973,  102
 398,  538,  951,  957, 1137
 399,  929,  106,  107,  946
 400,  946,  540, 1158,  929
 401, 1138,  948,  938,  541
 402,  109,  939,  938,  108
 403, 1190,  939,  942,  542
 404, 1141,  945,  944,  543
 405,  542,  942,  945, 1141
 406, 1141,  543, 1385, 1316
 407, 1745, 1850, 1699, 1727
 408, 1744, 1607,  377, 1864
 409, 1588, 1689,  377, 1470
 410,  375, 1857, 1689, 1588
 411, 1645, 1648, 1454,  444
 412, 1348, 1362, 1190,  542
 413,  542, 1141, 1316, 1348
 414,  634,  947,  944,  111
 415, 1161,  947,  949,  544
 416, 1161,  544, 1397, 1282
 417, 1661, 1557, 1862, 1623
 418, 1642, 1713, 1748, 1724
 419, 1713, 1642, 1553,  379
 420,  112,  949,  947,  634
 421,  544,  949,  952, 1080
 422,  956,  545, 1799,  954
 423,  962,  546, 1220,  959
 424,  546,  962,  963, 1227
 425,  117,  970,  964,  637
 426,  118,  979,  970,  117
 427,  979,  118,  638,  974
 428,  548,  979,  974, 1167
 429,  450, 1341, 1498, 1671
 430, 1739, 1671,  451, 1709
 431, 1715, 1718, 1589, 1852
 432,  388, 1677, 1716,  408
 433, 1677,  386, 1719, 1716
 434, 1646,  450, 1723, 1749
 435, 1233,  548, 1341, 1506
 436,  449, 1369, 1506, 1646
 437,  120,  995, 1154,  119
 438,  995,  120,  639, 1156
 439, 1069, 1493, 1311,  549
 440,  451, 1870, 1665, 1709
 441, 1751,  392, 1743, 1754
 442, 1751, 1755,  410, 1750
 443,  549, 1154,  995, 1069
 444,  985,  121,  122, 1696
 445,  985, 1696, 1790, 1048
 446, 1614,  551, 1800, 1423
 447, 1614, 1485, 1048, 1790
 448, 1485, 1618,  452, 1294
 449, 1618, 1485,  453, 1733
 450, 1682, 1750, 1752,  394
 451, 1740,  411, 1752, 1879
 452,  125,  553,  966,  124
 453,  553,  125,  642,  961
 454,  554,  126,  127,  955
 455,  643,  555,  955,  127
 456,  129,  556,  950,  128
 457, 1159,  950,  556, 1207
 458, 1217, 1184, 1159, 1207
 459,  457, 1184, 1217, 1018
 460,  646,  940,  941,  132
 461,  134,  936,  937,  133
 462,  133,  937,  940,  646
 463, 1335,  137,  138,  931
 464,  464, 1335,  931, 1166
 465, 1445, 1421, 1166, 1339
 466, 1445,  473, 1621, 1601
 467, 1654, 1499, 1629, 1694
 468, 1241,  568, 1361, 1360
 469,  895,  894,  172,  665
 470,  173,  666,  896,  902
 471,  567,  902,  896, 1241
 472,  649,  465,  931,  138
 473,  139,  927,  465,  649
 474,  466, 1162, 1193,  927
 475, 1251,  472, 1518, 1520
 476,  566, 1102, 1258, 1409
 477, 1102,  894,  895, 1801
 478,  140,  466,  927,  139
 479,  466,  140,  650,  738
 480,  467,  141,  142,  732
 481,  651,  752,  732,  142
 482,  926,  925, 1098, 1798
 483,  925,  923,  469, 1098
 484,  653,  468,  924,  145
 485,  928,  654,  148, 1004
 486, 1286,  928, 1004, 1086
 487, 1004,  148,  149,  919
 488,  919,  149,  655,  525
 489,  524, 1542, 1428,  483
 490, 1029, 1169, 1795,  559
 491,  559, 1023,  659,  162
 492,  162,  163, 1029,  559
 493,  163,  660,  560, 1029
 494,  889, 1099,  561, 1172
 495, 1105,  884,  883,  562
 496,  166,  662,  885,  883
 497,  891,  885,  662,  167
 498,  886,  887,  168,  663
 499, 1112,  887,  886,  564
 500, 1540, 1330, 1377,  486
 501, 1481, 1876, 1653, 1635
 502, 1098, 1325, 1379, 1798
 503,  925,  652,  144,  923
 504, 1004,  919,  524, 1086
 505, 1244,  150,  151,  921
 506,  152,  918,  920,  656
 507,  657,  480,  918,  152
 508,  740,  736, 1063,  481
 509,  160,  161,  558,  882
 510, 1023,  558,  161,  659
 511, 1023,  559, 1795, 1182
 512,  656,  920,  921,  151
 513,  918,  480,  736,  740
 514, 1757, 1776,  153,  154
 515,  155,  156,  731, 1756
 516,  731,  156,  157, 1775
 517, 1063,  736, 1761,  882
 518, 1756,  731, 1775,  733
 519,  888,  886,  663,  169
 520, 1134,  888,  890,  565
 521, 1134,  565, 1396, 1291
 522, 1635, 1656, 1592,  520
 523, 1556,  470, 1798, 1379
 524,  471,  749, 1100, 1400
 525,  890,  888,  169,  170
 526,  565,  890,  893, 1133
 527,  664,  171,  892,  893
 528,  565, 1133, 1272, 1396
 529, 1133,  566, 1409, 1272
 530, 1562, 1634,  519,  487
 531, 1587, 1634, 1663, 1863
 532, 1388,  471, 1543, 1587
 533,  467,  749, 1224,  738
 534,  141,  467,  738,  650
 535,  176,  177,  905,  899
 536,  901,  904,  668,  178
 537, 1143,  571, 1295, 1394
 538, 1628, 1465,  493, 1655
 539,  477, 1569, 1625, 1692
 540,  461, 1135, 1364, 1503
 541, 1135,  462, 1812, 1364
 542,  901,  571, 1143,  904
 543,  903,  901,  178,  179
 544,  907,  906,  669,  180
 545,  909,  908,  181,  670
 546, 1056,  909,  910, 1782
 547,  670,  182,  910,  909
 548, 1106, 1056, 1782, 1242
 549, 1786, 1779, 1170, 1284
 550, 1015, 1025,  496,   17
 551,  676,  581, 1765,  191
 552, 1038,  192,  193,  582
 553, 1179, 1173, 1329,  385
 554,  582,  193,  677, 1037
 555,  583,  194,  195, 1027
 556,  678,  584, 1027,  195
 557,  197,  585,  917,  196
 558,  585,  197,  679,  742
 559,  742,  679,  198,  586
 560,  586,  198,  199,  735
 561,  735,  199,  680, 1020
 562,  735, 1140, 1005,  586
 563, 1020,  680,  200,  837
 564,  681,  834,  837,  200
 565, 1113,  834,  831, 1327
 566, 1607, 1276, 1470,  377
 567,  201,  831,  834,  681
 568,  202,  829,  831,  201
 569,  682,  823,  829,  202
 570,  204,  817,  822,  203
 571,  810,  683,  205,  804
 572,  206,  802,  804,  205
 573, 1119,  367, 1372, 1353
 574,  683,  810,  817,  204
 575,  368, 1116,  822,  817
 576, 1116,  368, 1813, 1352
 577,  505,  841,  220,  692
 578,  221,  222,  506,  845
 579,  507, 1097, 1168, 1024
 580, 1097,  507, 1022, 1194
 581, 1395, 1510, 1513,  298
 582, 1314,  429, 1492, 1539
 583,  298, 1513, 1521, 1270
 584, 1024, 1168, 1181,  506
 585, 1103,  845,  506, 1181
 586,  692,  221,  845,  505
 587,  830,  839,  228,  229
 588,  801,  808,  232,  699
 589,  793,  801,  699,  233
 590,  791,  795,  234,  700
 591,  786,  791,  700,  235
 592,  786, 1328, 1126,  791
 593, 1267,  307, 1328, 1127
 594, 1408, 1827,  348, 1336
 595,  616,  988,  990,   78
 596,  421, 1355, 1512, 1226
 597, 1226, 1512,  349,  420
 598, 1512, 1604, 1693,  349
 599, 1253,  307, 1560, 1613
 600,  776,  772,  702,  239
 601,  788,  803,  703,  240
 602,  311,  788,  785, 1221
 603,  799,  785,  241,  704
 604, 1221,  785,  799,  312
 605,  806,  799,  704,  242
 606,  312, 1213, 1313, 1460
 607, 1245, 1256, 1808, 1151
 608, 1460, 1351, 1221,  312
 609,  788,  311, 1128,  803
 610,  785,  788,  240,  241
 611,  813,  316, 1110,  836
 612, 1350, 1273, 1222,  340
 613, 1833, 1108,  796,  787
 614,  250,  826,  787,  249
 615,  709,  780,  826,  250
 616,  717,  766,  767,  264
 617, 1136,  763,  857,  858
 618,  266,  764,  763,  265
 619,  272,  852,  851,  721
 620,   30,  589,  726,  281
 621,   28,  588,  727,  283
 622,   27,  587,  728,  284
 623, 1789, 1811, 1595, 1598
 624, 1534, 1789, 1598,  365
 625, 1831,  435, 1489, 1816
 626,  534, 1298, 1815, 1050
 627, 1003,  627,   99, 1232
 628,  292, 1875, 1871, 1867
 629, 1793, 1737,  840, 1040
 630,  503,  842, 1067, 1288
 631,  296, 1535, 1422, 1079
 632, 1250, 1516, 1523,  296
 633, 1202,  841,  505, 1802
 634, 1079,  504,  841, 1202
 635, 1068,  508,  751, 1209
 636,  301, 1846, 1466, 1637
 637, 1591, 1522,  302, 1425
 638, 1566, 1228,  839, 1257
 639,  351, 1435, 1619, 1547
 640, 1559, 1547,  304, 1252
 641, 1118,  816,  812, 1120
 642, 1459,  305, 1604,  350
 643,  233,  234,  795,  793
 644, 1225,  310, 1845, 1354
 645, 1371, 1501, 1128,  311
 646,  309,  781,  772, 1225
 647,  821,  819,  243,  705
 648, 1196,  833,  844,  315
 649, 1180, 1273, 1350,  316
 650,  708,  796,  846,  248
 651, 1107,  318, 1386, 1833
 652,  868,  870, 1046,  338
 653, 1046,  339, 1398, 1277
 654, 1108, 1277, 1398,  317
 655,  316,  813,  828, 1180
 656, 1188,  789,  848, 1803
 657,  334,  753, 1058, 1208
 658,  322, 1215,  818,  815
 659,  321, 1215, 1208, 1058
 660, 1092,  320,  832,  838
 661,  753,  335, 1218, 1058
 662,  335,  877, 1054, 1218
 663,  798,  792,  323, 1223
 664, 1171, 1783,  880,  866
 665,  878,  606,   61,  868
 666, 1077,  337, 1234,  878
 667, 1281, 1206,  314, 1441
 668, 1213,  313, 1453, 1313
 669,  415, 1177, 1245, 1762
 670, 1340, 1129,  309, 1496
 671,  347, 1657, 1469, 1463
 672,  419, 1157,  992, 1237
 673, 1408, 1336,  419,  991
 674, 1810, 1826, 1827, 1408
 675, 1148, 1368, 1495,  424
 676, 1324, 1149,  424, 1495
 677, 1848, 1847, 1548, 1860
 678, 1387,  300, 1537, 1502
 679, 1395,  299, 1527, 1510
 680, 1880, 1594,  356, 1517
 681, 1314, 1349, 1205,  429
 682,  430, 1391, 1508, 1528
 683, 1358,  430, 1528, 1504
 684, 1620, 1615, 1678,  361
 685, 1617, 1668, 1704,  362
 686,  437, 1090, 1265, 1448
 687,   32,  590,  725,  279
 688, 1777, 1302, 1121,  497
 689, 1797,  829,  823,  370
 690, 1320, 1246, 1005,  376
 691, 1005, 1246,  742,  586
 692, 1357,  378, 1533, 1822
 693,  378, 1357, 1071, 1246
 694, 1191,  380, 1838, 1283
 695, 1027, 1283, 1175,  583
 696, 1071, 1211,  917,  585
 697, 1296,  381, 1545, 1484
 698, 1037, 1370, 1176,  582
 699, 1027,  584, 1191, 1283
 700, 1622, 1456,  387, 1707
 701, 1078, 1028,  580, 1301
 702,  580,  916, 1055, 1301
 703,  389, 1616, 1452, 1832
 704, 1028, 1078, 1317,  579
 705, 1185,  915,  578, 1337
 706, 1032,  188,  674,  579
 707, 1337,  578, 1032, 1164
 708, 1236,  393, 1780, 1576
 709, 1198,  393, 1384, 1199
 710,  915, 1185, 1346,  577
 711, 1647, 1649, 1564,  371
 712, 1449,  443, 1639, 1652
 713, 1571,  373, 1662, 1624
 714,  375, 1571, 1624, 1857
 715, 1821, 1698, 1849, 1720
 716, 1675, 1461,  448, 1711
 717,  448, 1573, 1597, 1711
 718,  449, 1597, 1573, 1369
 719,  384, 1714, 1885, 1585
 720, 1676, 1712,  384, 1500
 721, 1676,  382, 1720, 1856
 722, 1885, 1714, 1721,  386
 723,    7, 1012, 1392, 1009
 724, 1679, 1437, 1392, 1012
 725, 1374, 1231,  538, 1823
 726, 1457, 1365, 1231, 1374
 727, 1442,  441, 1673, 1805
 728, 1012,    7,    8, 1297
 729, 1443,  442, 1631, 1660
 730, 1138,  541, 1308, 1389
 731,  444, 1555, 1640, 1645
 732,  447, 1667, 1558, 1410
 733,  546,  448, 1461, 1373
 734,  116,  963,  962,  115
 735,  547, 1369, 1573, 1227
 736, 1413, 1081,  413, 1472
 737, 1307, 1195, 1413,  455
 738, 1076, 1307,  961,  554
 739,  961,  642,  126,  554
 740,  611,  996,  997,   69
 741,  993, 1087, 1303,  417
 742,  992,  614,   76, 1237
 743,  418,  992, 1157, 1322
 744, 1381, 1843, 1792, 1147
 745, 1146, 1420,  426, 1331
 746, 1880, 1546, 1884, 1594
 747,  428, 1433, 1089, 1074
 748, 1160, 1205,  527,  748
 749,  431, 1407, 1511, 1873
 750, 1052,  981,  532, 1431
 751, 1815, 1298,  436, 1489
 752, 1448, 1298,  534, 1091
 753, 1323,  437, 1448, 1091
 754, 1013,    8,    9, 1767
 755,  536,  960, 1216, 1255
 756, 1239, 1255, 1216, 1419
 757, 1767,  438, 1239, 1013
 758,  540, 1279, 1402, 1158
 759,  540,  946,  948, 1138
 760,  446, 1558, 1729, 1623
 761, 1410, 1264, 1799,  545
 762,  545,  956,  959, 1220
 763, 1461, 1606,  447, 1373
 764, 1493, 1870,  451, 1311
 765,  966, 1064, 1304,  552
 766, 1060, 1491, 1423, 1800
 767, 1785, 1051,  456, 1195
 768, 1085, 1201,  955,  555
 769,  750,  645,  132,  941
 770, 1207, 1230,  458, 1217
 771, 1139, 1366,  460, 1434
 772, 1132,  463, 1390, 1312
 773, 1404, 1271, 1130,  464
 774,  147,  922, 1034,  146
 775, 1286, 1178,  922,  928
 776, 1602, 1531,  485, 1883
 777,  486, 1653, 1636, 1540
 778,  924, 1066,  469,  923
 779, 1325, 1098,  469, 1401
 780,  752,  651,  143,  926
 781, 1162, 1224,  472, 1251
 782, 1445, 1601,  474, 1421
 783, 1561,  475, 1650, 1644
 784,  475, 1825, 1610, 1650
 785,  477, 1692,  478, 1627
 786, 1708, 1691,  512, 1579
 787, 1525, 1633, 1655,  493
 788, 1338,  572, 1084, 1318
 789,  906,  903,  179,  669
 790, 1579, 1462, 1455,  478
 791,  920,  481, 1093,  921
 792,  558, 1163, 1063,  882
 793,  560,  889, 1172, 1342
 794, 1169, 1029,  560, 1342
 795,  884, 1105,  561, 1099
 796, 1285, 1086,  524,  483
 797, 1830, 1542,  525, 1244
 798, 1447, 1844, 1414, 1575
 799,  522, 1458, 1446, 1851
 800, 1101,  563, 1321, 1380
 801, 1280, 1380, 1531,  484
 802, 1330, 1321,  563, 1112
 803, 1524,  484, 1552, 1575
 804,  484, 1524, 1399, 1280
 805, 1086, 1285,  523, 1286
 806,  486, 1554, 1635, 1653
 807, 1102, 1801, 1468, 1258
 808, 1499, 1360, 1361,  490
 809, 1626, 1436,  491,  515
 810, 1465, 1628, 1658,  492
 811, 1462, 1700,  511, 1432
 812, 1514, 1309, 1670,  494
 813,  573, 1284, 1382, 1084
 814,  908,  907,  180,  181
 815, 1338,  494, 1525, 1375
 816, 1338, 1318, 1514,  494
 817,  576,  914, 1198, 1199
 818,  211,  811,  809,  210
 819,  498, 1043, 1033, 1007
 820,  801, 1123, 1122,  808
 821,  247,  813,  836,  246
 822, 1633, 1525,  494, 1670
 823, 1569,  476, 1659, 1625
 824, 1629, 1499,  490, 1866
 825, 1580, 1858,  518, 1877
 826, 1587, 1543,  519, 1634
 827, 1592, 1400, 1556,  520
 828, 1178, 1210, 1034,  922
 829, 1359,  522, 1210, 1178
 830, 1066, 1446, 1401,  469
 831,   87,  969,  968,  620
 832,  529,  881, 1070, 1200
 833, 1091,  989, 1155,  535
 834,  536, 1187,  965,  973
 835,  543, 1161, 1282, 1385
 836, 1080,  952,  954, 1799
 837, 1839, 1264,  446, 1862
 838,  564, 1134, 1291, 1377
 839,  192, 1038,  581,  676
 840, 1037,  677,  194,  583
 841, 1014,  457, 1018,   21
 842,   36,  853,  855,  592
 843,   39,  851,  852,   38
 844,  856,  596,   43,  329
 845, 1083,  597,   45,  857
 846,  599,  862,  861,   48
 847,  334,  603,   56,  753
 848,  877,  604,   58,  336
 849,   60, 1234,  872,  605
 850,  874,  607,   63,  871
 851, 1403,  615,   78,  990
 852,  988,  616,   79,  987
 853,   81,  983,  984,  617
 854,  621,  967,  969,   87
 855,   88,  526,  967,  621
 856,  527,  622,   90,  748
 857, 1002,  623,   92,  529
 858,  530,  624,   94, 1021
 859, 1681,  626,   97,  958
 860, 1155,  628,  101,  965
 861,  951,  630,  105,  957
 862,  933,  631,  106,  929
 863,  108,  938,  948,  632
 864,  633,  942,  939,  109
 865,  635,  954,  952,  113
 866,  636,  959,  956,  114
 867,  974,  638,  119, 1154
 868,  121,  985, 1156,  639
 869,  551,  640,  123,  977
 870,  555,  643,  128,  950
 871,  135,  934,  935,  647
 872,  468,  653,  146, 1034
 873,  654,  928,  922,  147
 874,  525,  655,  150, 1244
 875,  657,  153, 1776,  480
 876,  660,  164,  889,  560
 877,  661,  165,  884, 1099
 878,  894,  892,  171,  172
 879,  665,  173,  902,  895
 880,  666,  174,  898,  896
 881,  899,  897,  667,  176
 882,  915,  673,  187,  578
 883,  579,  674,  189, 1028
 884,  916,  675,  191, 1765
 885,  584,  678,  196,  917
 886,  203,  822,  823,  682
 887,  805,  684,  207,  794
 888,  210,  809,  783,  686
 889, 1326,  687,  212,  800
 890,  820,  688,  214, 1229
 891,  216,  502, 1695,  689
 892,  694,  224,  508, 1022
 893,  695,  226, 1026,  509
 894,  781,  807,  237,  238
 895,  707,  828,  813,  247
 896,  249,  787,  796,  708
 897,  253,  814,  847,  710
 898,  711,  838,  832,  254
 899,  256,  815,  818,  712
 900,  792,  713,  258,  782
 901,  260,  773,  775,  714
 902,  771,  715,  262,  769
 903,  263,  768,  770,  716
 904,  766,  717,  265,  763
 905,  761,  719,  269,  850
 906,  271,  758,  759,  720
 907,  276,  755,  854,  723
 908,   27,  284, 1760,   26
 909,  285,  729, 1760,  284
 910,  159, 1758,  737,  158
 911, 1775,  737, 1758,  733
 912,  732, 1100,  749,  467
 913, 1757, 1756,  733, 1776
 914,  376, 1005, 1140, 1393
 915,  733,  736,  480, 1776
 916,  736,  733, 1758, 1761
 917,  481,  920,  918,  740
 918, 1242, 1778, 1769,  743
 919,  743,   15,   16, 1768
 920,  414,   23,  744, 1081
 921, 1349, 1314,  428, 1074
 922, 1791, 1230,  746, 1796
 923,  746,  557,  734, 1796
 924, 1186, 1160,  748,  528
 925, 1434, 1095,  750,  941
 926, 1209, 1192, 1841,  300
 927,  926,  143,  652,  925
 928,  752,  470, 1100,  732
 929,  756,  722,  274,  853
 930,  757,  593,   38,  852
 931,  856,  760,  761,  330
 932,  718,  765,  764,  266
 933,  857,  763,  764, 1083
 934,  765,  762,  329, 1031
 935,  328, 1073,  767,  766
 936,  768,  327, 1053,  770
 937, 1053,  327,  861,  862
 938,  326, 1131,  771,  769
 939,  325, 1131,  864,  865
 940,  867,  880, 1783, 1204
 941,  324,  778,  775, 1783
 942,  239,  703,  803,  776
 943, 1127,  777,  779, 1417
 944, 1328,  786,  777, 1127
 945, 1490,  324, 1171, 1306
 946,  701,  237,  807,  779
 947,  789,  251,  252,  848
 948, 1107,  826,  780,  318
 949,  323,  792,  782, 1490
 950,  791, 1126, 1125,  795
 951,  848,  252,  710,  847
 952,  318,  780,  789, 1188
 953,  790,  685,  208,  797
 954, 1223,  323, 1094, 1203
 955,  793, 1124, 1123,  801
 956,  805,  794, 1006, 1269
 957, 1125, 1124,  793,  795
 958,  846,  317, 1180,  828
 959,  208,  209,  784,  797
 960,  322,  815,  798, 1223
 961,  500, 1310, 1809, 1424
 962,  499, 1326,  800, 1424
 963,  808, 1122, 1120,  812
 964,  497, 1121,  802,  805
 965,  804,  802, 1121,  367
 966,  310,  776,  803, 1128
 967,  810,  804,  367, 1119
 968,  312,  799,  806, 1213
 969, 1417,  779,  807, 1129
 970,  811,  211,  687, 1326
 971,  817,  810, 1119,  368
 972, 1781,  499, 1043,  498
 973,  816, 1118, 1117,  824
 974,  828,  707,  248,  846
 975, 1109,  319,  847,  814
 976,  815,  256,  257,  798
 977, 1117, 1115,  827,  824
 978, 1215,  321,  843,  818
 979, 1075,  820, 1229,  501
 980,  705,  244,  835,  821
 981,  819,  821, 1206,  313
 982,  823,  822, 1116,  370
 983, 1049,  825, 1695, 1612
 984, 1257, 1114,  302, 1846
 985,  829, 1797, 1327,  831
 986,  838,  711,  255,  843
 987,  245,  706,  844,  833
 988,  314,  835,  833, 1196
 989,  834, 1113, 1347,  837
 990,  315,  844,  836, 1110
 991, 1020,  837, 1347,  374
 992,  246,  836,  844,  706
 993,  843,  255,  712,  818
 994,  317,  846,  796, 1108
 995,  850,  269,  270,  849
 996, 1136,  858,  859,  328
 997,  858,   46,  598,  859
 998,  327, 1073,  860,  861
 999,  768,  767, 1073,  327
1000,  769,  770, 1053,  326
1001,  774,  771, 1131,  325
1002, 1306,  332,  869, 1094
1003,  601,   52,  866,  880
1004,  870,   62,  607,  874
1005, 1094,  869,  333, 1203
1006,  339, 1046,  870,  874
1007,  340, 1222,  871,  875
1008,  874,  871, 1222,  339
1009,  337, 1045,  872, 1234
1010,  875,  879, 1104,  340
1011,  876, 1000, 1144, 1197
1012, 1345, 1427,  336, 1567
1013,  873,  341, 1104,  879
1014,  658,  160,  882, 1761
1015,  165,  166,  883,  884
1016, 1101,  885,  891,  563
1017,  562,  883,  885, 1101
1018,  563,  891,  887, 1112
1019,  167,  168,  887,  891
1020,  564,  886,  888, 1134
1021, 1099,  889,  164,  661
1022,  893,  890,  170,  664
1023,  892,  566, 1133,  893
1024,  566,  892,  894, 1102
1025, 1801,  895,  902,  567
1026,  568, 1241,  896,  898
1027, 1142,  900,  897,  569
1028,  900,  898,  174,  175
1029, 1088,  899,  905,  570
1030, 1096,  903,  906,  572
1031,  571,  901,  903, 1096
1032,  570,  905,  904, 1143
1033,  177,  668,  904,  905
1034, 1084,  907,  908,  573
1035,  572,  906,  907, 1084
1036,  573,  908,  909, 1056
1037,  911,  910,  182,  671
1038,  574, 1782,  910,  911
1039, 1332,  912,  183,  184
1040, 1039, 1165,  575, 1042
1041, 1042,  576, 1199, 1039
1042, 1198,  914,  577, 1346
1043,  914,  576, 1333,  185
1044, 1179,  385, 1438, 1300
1045, 1191,  584,  917, 1211
1046,  524,  919,  525, 1542
1047,  923,  144,  145,  924
1048, 1066,  924,  468, 1376
1049,  470,  752,  926, 1798
1050,  539,  933,  929, 1158
1051,  464, 1130,  930, 1335
1052,  932,  930, 1130,  463
1053, 1166,  931,  465, 1339
1054, 1137,  957,  933,  539
1055,  935,  934, 1132,  462
1056,  936,  935,  462, 1135
1057,  942,  633,  110,  945
1058,  541,  938,  939, 1190
1059,  941,  940, 1139, 1434
1060,  945,  110,  111,  944
1061, 1231,  943,  951,  538
1062,  946,  107,  632,  948
1063,  949,  112,  113,  952
1064,  543,  944,  947, 1161
1065,  950, 1159, 1184,  555
1066,  954,  635,  114,  956
1067, 1216,  537, 1788, 1419
1068, 1051, 1085,  457, 1014
1069,  959,  636,  115,  962
1070, 1041,  533, 1289, 1483
1071,  536,  973, 1764,  960
1072, 1201, 1076,  554,  955
1073,  963,  116,  637,  964
1074,  547, 1227,  963,  964
1075,  535, 1187, 1323, 1091
1076, 1794,  553,  961, 1307
1077,  967,  526, 1074, 1089
1078, 1089, 1145,  969,  967
1079, 1233,  970,  979,  548
1080,  547,  964,  970, 1233
1081, 1331,  971,  968, 1146
1082, 1331, 1147,  972,  971
1083, 1167,  974, 1154,  549
1084,  425,  976,  975, 1792
1085,  424,  980,  978, 1148
1086,  423,  983,  982, 1149
1087,  422,  986,  984, 1150
1088,  550, 1156,  985, 1048
1089,  421,  988,  987, 1247
1090,  989, 1091,  534, 1232
1091,  420, 1403,  990, 1226
1092,  419, 1237, 1763,  991
1093,  615, 1403, 1763,   77
1094, 1157,  419, 1336, 1451
1095, 1069,  995, 1156,  550
1096,  996,  611,   70, 1762
1097,  997, 1152, 1334,  998
1098,  999,  998, 1334, 1153
1099, 1001,  999, 1153, 1412
1100, 1412, 1144, 1000, 1001
1101,  534, 1050, 1003, 1232
1102, 1003, 1050,  533, 1219
1103,    5, 1008, 1269, 1006
1104, 1008,    5,    6, 1766
1105,    6,    7, 1009, 1766
1106,  398, 1214, 1009, 1392
1107, 1238, 1010, 1090,  437
1108,    9,   10, 1011, 1767
1109, 1297,    8, 1013,  439
1110, 1051, 1014, 1035,  456
1111, 1015,   17,   18, 1772
1112, 1025, 1015, 1044,  495
1113, 1016, 1240,  479, 1432
1114, 1017,   19,   20, 1771
1115, 1240, 1017, 1243, 1261
1116, 1774, 1019, 1236, 1576
1117, 1020,  374, 1140,  735
1118, 1023, 1182, 1163,  558
1119, 1024,  506,  222,  693
1120, 1170, 1779,  496, 1025
1121, 1847, 1174, 1566,  301
1122, 1030,   33,  591, 1047
1123,  414, 1195,  456, 1035
1124, 1036, 1183, 1177,  415
1125,  583, 1175, 1370, 1037
1126,  582, 1176, 1173, 1038
1127, 1038, 1173, 1179,  581
1128, 1040, 1288, 1563,  294
1129, 1793, 1478, 1736, 1611
1130, 1483,  434, 1544, 1041
1131, 1332, 1042,  575,  912
1132,  576, 1042,  913, 1333
1133, 1249, 1043,  499, 1473
1134, 1309, 1044,  511, 1700
1135, 1820, 1803, 1045,  337
1136, 1047,  591,   34,  755
1137, 1048, 1485, 1294,  550
1138,  502, 1611, 1612, 1695
1139, 1489,  435, 1289, 1815
1140, 1051, 1785, 1201, 1085
1141, 1052, 1431, 1817, 1574
1142, 1299, 1052, 1574,  433
1143, 1054, 1427, 1109,  320
1144, 1218, 1054,  320, 1092
1145, 1055, 1300, 1438,  387
1146, 1301, 1055,  387, 1456
1147,  573, 1056, 1786, 1284
1148, 1344, 1057, 1439,  345
1149, 1183, 1344,  345, 1290
1150, 1058, 1218, 1092,  321
1151, 1418, 1059, 1299,  433
1152,  432, 1212, 1059, 1418
1153,  551,  977, 1060, 1800
1154,  497,  805, 1269, 1777
1155, 1315, 1302, 1777, 1061
1156,  366,  747, 1062, 1319
1157, 1265, 1090, 1319, 1474
1158, 1064,  455, 1570, 1304
1159, 1065,   40,   41,  331
1160, 1210, 1376,  468, 1034
1161, 1563, 1288, 1067,  295
1162, 1387, 1068, 1209,  300
1163, 1194,  299, 1395, 1097
1164,  550, 1294, 1493, 1069
1165, 1407, 1070, 1212,  432
1166,  431, 1200, 1070, 1407
1167, 1071,  585,  742, 1246
1168, 1211, 1071, 1357,  380
1169,  526,  745, 1349, 1074
1170,  501, 1293, 1487, 1075
1171, 1076, 1785, 1195, 1307
1172, 1277, 1386,  338, 1046
1173, 1386, 1292, 1077,  338
1174, 1078, 1301, 1456,  389
1175, 1078,  389, 1832, 1317
1176, 1079, 1422, 1305,  504
1177,  447, 1410, 1829, 1373
1178, 1391, 1082, 1200,  431
1179,  430, 1186, 1082, 1391
1180, 1318, 1084, 1382, 1514
1181, 1085,  555, 1184,  457
1182, 1303, 1087, 1463,  346
1183,  347, 1463, 1087, 1322
1184, 1394, 1275,  570, 1143
1185,  427, 1145, 1089, 1433
1186, 1163, 1263,  481, 1063
1187, 1244,  921, 1093, 1830
1188,  750, 1095, 1796,  734
1189, 1818,  460, 1526, 1363
1190, 1338, 1375, 1096,  572
1191,  298, 1168, 1097, 1395
1192, 1400, 1100,  470, 1556
1193, 1321,  485, 1531, 1380
1194, 1840, 1468, 1801,  567
1195, 1202, 1802, 1836, 1250
1196, 1426, 1467, 1819, 1536
1197, 1105,  562, 1280, 1399
1198, 1292, 1386,  318, 1188
1199, 1111,  500, 1424,  800
1200, 1377, 1330, 1112,  564
1201,  372, 1835, 1113, 1327
1202, 1276, 1347, 1113, 1835
1203, 1114,  830,  827, 1115
1204, 1114, 1115, 1425,  302
1205,  370, 1497, 1343, 1797
1206,  303, 1425, 1115, 1117
1207, 1813, 1353, 1564,  373
1208, 1117, 1118, 1430,  303
1209,  304, 1430, 1118, 1120
1210, 1120, 1122, 1252,  304
1211,  305, 1252, 1122, 1123
1212, 1123, 1124, 1254,  305
1213,  306, 1254, 1124, 1125
1214, 1125, 1126, 1253,  306
1215,  307, 1253, 1126, 1328
1216,  308, 1267, 1127, 1417
1217,  344, 1290, 1371, 1351
1218, 1260,  539, 1158, 1402
1219, 1362, 1308,  541, 1190
1220, 1393, 1140,  374, 1553
1221, 1405, 1262,  569, 1088
1222, 1375, 1295,  571, 1096
1223, 1412, 1268, 1248, 1144
1224, 1144, 1248, 1819, 1197
1225,  426, 1538, 1881, 1381
1226, 1505,  425, 1792, 1843
1227, 1245, 1151,  996, 1762
1228,  343, 1152, 1151, 1808
1229,  343, 1313, 1453, 1356
1230, 1356, 1334, 1152,  343
1231, 1268, 1153,  342, 1281
1232, 1322, 1157, 1451,  347
1233, 1389, 1279,  540, 1138
1234, 1207,  556,  741, 1230
1235,  429, 1205, 1160, 1358
1236, 1193, 1162, 1251,  473
1237, 1182,  482, 1263, 1163
1238, 1317, 1832, 1828, 1164
1239, 1824, 1452, 1706,  391
1240, 1339,  465,  927, 1193
1241, 1421, 1404,  464, 1166
1242,  549, 1311, 1498, 1167
1243, 1167, 1498, 1341,  548
1244, 1270, 1181, 1168,  298
1245, 1342,  483, 1428, 1169
1246, 1170, 1025,  495, 1787
1247,  323, 1490, 1306, 1094
1248, 1399, 1414,  561, 1105
1249, 1844, 1447, 1342, 1172
1250,  383, 1329, 1173, 1176
1251, 1174,  510, 1228, 1566
1252, 1026, 1287, 1192,  509
1253,  381, 1296, 1370, 1175
1254, 1176, 1370, 1296,  383
1255, 1177,  344, 1256, 1245
1256, 1359, 1178, 1286,  523
1257,  339, 1222, 1273, 1398
1258,  297, 1103, 1181, 1270
1259,  482, 1542, 1830, 1263
1260, 1185, 1337, 1450, 1807
1261, 1807, 1450, 1780,  393
1262, 1155,  965, 1187,  535
1263,  536, 1255, 1804, 1187
1264, 1345, 1045, 1803,  319
1265, 1429, 1189, 1249,  290
1266, 1339, 1193,  473, 1445
1267,  299, 1194, 1068, 1387
1268, 1195,  414, 1081, 1413
1269, 1266, 1536, 1819, 1248
1270,  395, 1039, 1199, 1384
1271,  296, 1079, 1202, 1250
1272, 1204, 1783,  775,  773
1273,  745,  527, 1205, 1349
1274,  738, 1224, 1162,  466
1275, 1268, 1281, 1441, 1248
1276, 1210,  522, 1851, 1376
1277, 1214,  398, 1274, 1479
1278, 1479, 1274,  399, 1647
1279, 1419, 1788, 1365,  439
1280, 1220,  546, 1373, 1829
1281, 1256, 1351, 1460, 1808
1282,  749,  471, 1388, 1224
1283, 1501, 1845,  310, 1128
1284, 1261, 1243, 1791,  459
1285, 1233, 1506, 1369,  547
1286, 1235,  744, 1770, 1383
1287, 1236,  395, 1384,  393
1288, 1774, 1576, 1593, 1806
1289, 1773, 1011, 1238, 1367
1290,  439, 1013, 1239, 1419
1291,  438, 1804, 1255, 1239
1292, 1778,  574,  911,  912
1293,  912,  575, 1769, 1778
1294,  458, 1230, 1791, 1243
1295, 1320,  376, 1488, 1584
1296, 1247, 1378, 1355,  421
1297, 1473,  499, 1424, 1809
1298, 1521, 1516,  297, 1270
1299, 1388, 1550,  472, 1224
1300, 1252,  305, 1459, 1559
1301, 1560,  348, 1827, 1613
1302, 1254,  306, 1486, 1693
1303,  302, 1522, 1466, 1846
1304, 1258, 1468, 1859, 1565
1305,  488, 1409, 1258, 1565
1306,  316, 1350, 1259, 1110
1307, 1104,  341, 1467, 1259
1308,  440, 1374, 1823, 1411
1309,  459, 1363, 1784, 1261
1310, 1240, 1261, 1784,  479
1311, 1262,  491, 1436, 1415
1312, 1415, 1436,  490, 1361
1313, 1093,  481, 1263, 1830
1314, 1428, 1542,  482, 1834
1315, 1410, 1558,  446, 1264
1316,  436, 1298, 1448, 1265
1317,  314, 1196, 1266, 1441
1318,  308, 1469, 1657, 1267
1319, 1560,  307, 1568,  348
1320, 1390,  475, 1561, 1312
1321,  463, 1130, 1271, 1390
1322, 1562, 1272, 1409,  488
1323, 1396, 1272, 1562,  487
1324, 1273, 1180,  317, 1398
1325, 1437, 1480,  398, 1392
1326, 1405, 1275,  492, 1444
1327, 1347, 1276, 1641,  374
1328, 1470, 1276, 1835,  372
1329, 1833, 1386, 1277, 1108
1330, 1406, 1278, 1435,  351
1331, 1378, 1406,  351, 1464
1332, 1402, 1279, 1443,  441
1333,  442, 1443, 1279, 1389
1334,  562, 1101, 1380, 1280
1335,  313, 1206, 1281,  342
1336, 1282, 1397, 1557,  445
1337, 1385, 1282,  445, 1555
1338,  380, 1822, 1475, 1838
1339,  381, 1175, 1283, 1549
1340, 1514, 1382, 1787,  495
1341,  523, 1575, 1552, 1359
1342, 1841, 1192, 1287, 1477
1343, 1040,  294, 1478, 1793
1344,  533, 1050, 1815, 1289
1345, 1291, 1396,  487, 1554
1346,  486, 1377, 1291, 1554
1347, 1077, 1292, 1820,  337
1348, 1638, 1293,  292, 1705
1349, 1294,  452, 1870, 1493
1350, 1465, 1394, 1295,  493
1351, 1365, 1457, 1297,  439
1352,  440, 1679, 1457, 1374
1353,  581, 1179, 1300, 1765
1354,  371, 1372, 1302, 1315
1355, 1057, 1303,  346, 1439
1356, 1491,  454, 1680, 1590
1357, 1794, 1307,  455, 1064
1358, 1389, 1308, 1449,  442
1359,  443, 1449, 1308, 1362
1360,  495, 1044, 1309, 1514
1361, 1551, 1473, 1809, 1811
1362, 1311,  451, 1671, 1498
1363, 1313,  343, 1808, 1460
1364, 1385, 1555,  444, 1316
1365, 1348, 1316,  444, 1454
1366, 1319, 1062, 1534,  365
1367, 1474, 1319,  365, 1599
1368, 1572, 1320, 1584, 1821
1369, 1533,  378, 1572,  382
1370,  352, 1605, 1591, 1519
1371, 1481, 1379, 1325, 1876
1372, 1326,  499, 1781,  811
1373,  485, 1321, 1330, 1540
1374,  342, 1153, 1334, 1356
1375, 1336,  348, 1568, 1451
1376,  391, 1450, 1337, 1824
1377, 1340, 1496, 1463, 1469
1378, 1506, 1341,  450, 1646
1379, 1588, 1343, 1497,  375
1380, 1343, 1588, 1470,  372
1381, 1427, 1345,  319, 1109
1382, 1362, 1348, 1454,  443
1383,  311, 1221, 1351, 1371
1384,  373, 1571, 1352, 1813
1385, 1497, 1352, 1571,  375
1386, 1353, 1372,  371, 1564
1387, 1496, 1354, 1439,  346
1388, 1512, 1355,  350, 1604
1389, 1822, 1533, 1500, 1475
1390, 1468, 1840,  489, 1859
1391,  567, 1241, 1360, 1840
1392, 1415, 1361,  568, 1142
1393,  448,  546, 1227, 1573
1394, 1818, 1363,  459, 1095
1395,  476, 1569, 1364, 1812
1396, 1503, 1364, 1569,  477
1397,  537, 1231, 1365, 1788
1398,  477, 1627, 1366, 1503
1399, 1804, 1773, 1367, 1187
1400, 1878, 1368, 1505,  354
1401, 1495, 1368, 1669,  353
1402,  493, 1295, 1375, 1525
1403, 1376, 1851, 1446, 1066
1404, 1843, 1596,  354, 1505
1405, 1787, 1382, 1284, 1170
1406,  397, 1235, 1383, 1806
1407,  393, 1198, 1346, 1807
1408, 1518,  472, 1550, 1858
1409,  475, 1390, 1271, 1825
1410, 1508, 1391, 1529, 1583
1411,  492, 1275, 1394, 1465
1412, 1839, 1397,  544, 1080
1413, 1862, 1557, 1397, 1839
1414, 1400, 1592, 1543,  471
1415, 1401,  521, 1876, 1325
1416, 1260, 1402,  441, 1442
1417,  474, 1515, 1404, 1421
1418, 1262, 1405, 1444,  491
1419,  352, 1435, 1278, 1476
1420, 1408,  991,  420, 1810
1421, 1080, 1799, 1264, 1839
1422, 1829, 1410,  545, 1220
1423, 1575, 1414, 1399, 1524
1424, 1172,  561, 1414, 1844
1425, 1416,  594,   40, 1065
1426, 1617, 1509,  433, 1574
1427,  427, 1517, 1630, 1420
1428, 1507, 1422, 1535, 1583
1429,  453, 1485, 1614, 1423
1430, 1425,  303, 1519, 1591
1431, 1814,  397, 1806, 1593
1432,  315, 1110, 1426, 1536
1433, 1447, 1285,  483, 1342
1434, 1534, 1429,  290, 1789
1435,  532, 1681, 1544, 1431
1436,  434, 1817, 1431, 1544
1437, 1539, 1546,  428, 1314
1438, 1434,  460, 1818, 1095
1439, 1519, 1619, 1435,  352
1440, 1664,  515,  491, 1444
1441, 1541, 1703,  385, 1329
1442, 1814, 1725, 1440,  397
1443, 1608, 1472,  413, 1440
1444, 1805, 1673, 1480, 1437
1445,  440, 1411, 1442, 1805
1446, 1652, 1631,  442, 1449
1447, 1685, 1664, 1658,  514
1448,  521, 1401, 1446, 1602
1449, 1648, 1639,  443, 1454
1450, 1609,  396, 1814, 1593
1451, 1437, 1679,  440, 1805
1452, 1602, 1446, 1458, 1882
1453, 1458,  522, 1359, 1552
1454, 1604,  305, 1254, 1693
1455, 1606, 1461, 1675, 1726
1456, 1670, 1309, 1700,  512
1457,  351, 1547, 1559, 1464
1458, 1637, 1466, 1669, 1878
1459,  353, 1669, 1466, 1522
1460, 1819, 1467,  341, 1197
1461, 1657,  347, 1451, 1568
1462, 1363, 1526, 1471, 1784
1463,  455, 1413, 1472, 1570
1464,  290, 1249, 1473, 1551
1465,  436, 1265, 1474, 1816
1466,  384, 1585, 1475, 1500
1467, 1596, 1881, 1861, 1860
1468, 1537, 1477, 1687,  355
1469, 1620, 1578,  294, 1563
1470,  371, 1315, 1479, 1647
1471, 1274,  398, 1480,  399
1472,  521, 1602, 1883, 1636
1473, 1379, 1481,  520, 1556
1474,  293, 1736, 1735, 1603
1475,  292, 1293, 1482, 1875
1476, 1697, 1581,  435, 1831
1477, 1484, 1545, 1677,  388
1478, 1494, 1484,  388, 1852
1479, 1486,  306, 1253, 1613
1480, 1584, 1488, 1642, 1724
1481, 1599, 1831, 1816, 1474
1482, 1423, 1491, 1731,  453
1483, 1539, 1492, 1586,  357
1484,  358, 1586, 1492, 1504
1485, 1618, 1868, 1869,  452
1486, 1541, 1494, 1852, 1589
1487, 1324, 1495,  353, 1605
1488, 1360, 1499,  489, 1840
1489, 1676, 1500, 1533,  382
1490, 1845, 1501,  345, 1354
1491, 1630, 1517, 1722,  355
1492,  356, 1527, 1502, 1722
1493, 1504, 1528, 1577,  358
1494, 1507,  360, 1615,  295
1495, 1528, 1508,  359, 1577
1496, 1532, 1509, 1582,  361
1497,  362, 1582, 1509, 1617
1498, 1594, 1510, 1527,  356
1499, 1513, 1510, 1884,  357
1500, 1826, 1486, 1613, 1827
1501, 1513,  357, 1586, 1521
1502, 1610, 1825, 1672, 1683
1503,  358, 1577, 1523, 1516
1504,  427, 1433, 1880, 1517
1505, 1580, 1520, 1518, 1858
1506,  303, 1430, 1619, 1519
1507,  517, 1621, 1520, 1580
1508,  473, 1251, 1520, 1621
1509,  358, 1516, 1521, 1586
1510, 1523,  359, 1535,  296
1511, 1458, 1552,  484, 1882
1512, 1366, 1627, 1526,  460
1513, 1583, 1529,  360, 1507
1514, 1532, 1530,  432, 1418
1515,  361, 1678, 1530, 1532
1516, 1551, 1811, 1789,  290
1517, 1583, 1535,  359, 1508
1518,  355, 1874, 1538, 1630
1519, 1539,  357, 1884, 1546
1520, 1550, 1388, 1587, 1863
1521, 1545,  381, 1549,  386
1522, 1433,  428, 1546, 1880
1523, 1637, 1548, 1847,  301
1524, 1596, 1860, 1548,  354
1525,  518, 1858, 1550, 1863
1526, 1701,  291, 1638, 1705
1527,  523, 1285, 1447, 1575
1528, 1656, 1635, 1554,  487
1529, 1640, 1555, 1651, 1727
1530, 1632, 1557, 1661, 1728
1531, 1568,  307, 1267, 1657
1532, 1561,  476, 1812, 1312
1533, 1810,  420,  349, 1826
1534, 1663, 1634, 1562,  488
1535, 1859, 1654, 1643, 1565
1536, 1304, 1570, 1680,  454
1537,  449, 1702, 1853, 1597
1538,  361, 1582, 1578, 1620
1539, 1717, 1578, 1582,  362
1540,  478, 1692, 1708, 1579
1541, 1579,  512, 1700, 1462
1542, 1867, 1753, 1837, 1741
1543, 1584, 1724, 1698, 1821
1544,  384, 1712,  406, 1714
1545, 1549, 1855, 1885,  386
1546, 1692,  513, 1691, 1708
1547, 1541, 1589,  390, 1703
1548, 1734, 1731, 1854, 1742
1549, 1605,  352, 1476, 1324
1550,  519, 1543, 1592, 1656
1551, 1725, 1814,  396, 1842
1552, 1599,  365, 1598, 1732
1553, 1595,  364, 1732, 1598
1554,  355, 1687, 1861, 1874
1555, 1738, 1711, 1597, 1853
1556, 1732, 1697, 1831, 1599
1557, 1707, 1600, 1743,  392
1558, 1438, 1600, 1707,  387
1559, 1694, 1601, 1621,  517
1560,  516, 1672,  474, 1601
1561, 1867, 1871,  363, 1753
1562, 1531, 1602, 1882,  484
1563, 1606,  405, 1667,  447
1564, 1607, 1744, 1699, 1850
1565, 1641,  379, 1553,  374
1566, 1608, 1440, 1725,  412
1567,  391, 1609, 1780, 1450
1568, 1609,  391, 1706,  396
1569, 1650, 1610,  515, 1685
1570, 1612,  293, 1482, 1049
1571, 1611,  502, 1737, 1793
1572, 1678, 1615,  360, 1511
1573, 1733, 1740, 1868, 1618
1574, 1868, 1740, 1879,  410
1575, 1674, 1622, 1682,  394
1576,  392, 1682, 1622, 1707
1577,  404, 1661, 1623, 1729
1578, 1686, 1624, 1662,  400
1579, 1625, 1659, 1688,  513
1580, 1626, 1683, 1666, 1866
1581, 1683, 1626,  515, 1610
1582, 1658, 1628, 1688,  514
1583,  513, 1688, 1628, 1655
1584, 1694, 1629,  516, 1601
1585, 1660, 1631, 1684,  399
1586,  400, 1684, 1631, 1652
1587,  403, 1651, 1632, 1728
1588, 1655, 1633, 1691,  513
1589,  512, 1691, 1633, 1670
1590, 1636, 1653, 1876,  521
1591, 1540, 1636, 1883,  485
1592, 1637, 1878,  354, 1548
1593, 1701, 1705, 1741, 1837
1594, 1652, 1639, 1686,  400
1595, 1645, 1640,  402, 1690
1596, 1713,  379, 1745,  403
1597,  517, 1580, 1877, 1643
1598, 1644, 1650, 1685,  514
1599, 1659, 1644,  514, 1688
1600, 1646, 1749, 1702,  449
1601, 1647,  399, 1684, 1649
1602,  400, 1662, 1649, 1684
1603,  373, 1564, 1649, 1662
1604, 1727, 1651,  403, 1745
1605, 1663,  488,  518, 1863
1606,  517, 1643, 1654, 1694
1607,  489, 1499, 1654, 1859
1608,  441, 1443, 1660, 1673
1609, 1728, 1661,  404, 1748
1610,  518,  488, 1565, 1877
1611, 1665, 1869, 1755,  409
1612, 1666,  516, 1629, 1866
1613, 1667, 1865, 1729, 1558
1614,  434, 1710, 1668, 1817
1615, 1704, 1668,  363, 1603
1616, 1671, 1739, 1723,  450
1617, 1683, 1672,  516, 1666
1618, 1674,  394, 1730, 1616
1619, 1675,  406, 1712, 1726
1620, 1679, 1012, 1297, 1457
1621, 1686,  401, 1857, 1624
1622, 1848, 1687, 1477, 1287
1623, 1872,  401, 1639, 1648
1624, 1744, 1864, 1690,  402
1625, 1690, 1864, 1872, 1648
1626, 1693, 1486, 1826,  349
1627, 1790, 1696,  551, 1614
1628,  364, 1581, 1697, 1732
1629, 1724, 1729, 1865, 1698
1630, 1726, 1856, 1849,  405
1631, 1699,  402, 1640, 1727
1632,  364, 1595, 1701, 1837
1633, 1738, 1853,  407, 1721
1634, 1705,  292, 1867, 1741
1635,  410, 1755, 1869, 1868
1636, 1709, 1665,  409, 1739
1637,  363, 1668, 1710, 1753
1638,  406, 1675, 1711, 1738
1639, 1856, 1726, 1712, 1676
1640, 1713,  403, 1728, 1748
1641, 1738, 1721, 1714,  406
1642, 1739,  409, 1718, 1715
1643, 1739, 1715,  408, 1723
1644, 1716, 1719, 1702, 1749
1645,  388,  408, 1715, 1852
1646, 1717,  362, 1704, 1735
1647, 1717, 1735, 1736, 1478
1648, 1747, 1718,  409, 1754
1649,  390, 1589, 1718, 1747
1650, 1719,  386, 1721,  407
1651, 1702, 1719,  407, 1853
1652, 1821, 1720,  382, 1572
1653, 1849, 1698, 1865,  405
1654, 1722, 1502, 1537,  355
1655, 1749, 1723,  408, 1716
1656,  404, 1729, 1724, 1748
1657, 1725, 1842, 1742,  412
1658, 1730, 1746, 1742, 1842
1659, 1706, 1730, 1842,  396
1660, 1731, 1734, 1733,  453
1661,  411, 1740, 1733, 1734
1662, 1710,  434, 1483, 1581
1663, 1753, 1710, 1581,  364
1664, 1879, 1752, 1750,  410
1665,  390, 1747, 1754, 1743
1666, 1755, 1751, 1754,  409
1667, 1850, 1745,  379, 1641
1668, 1746,  394, 1752,  411
1669, 1750, 1682,  392, 1751
1670,  154,  155, 1756, 1757
1671, 1775,  157,  158,  737
1672,  159,  658, 1761, 1758
1673, 1760,  730,   25,   26
1674, 1764,  629,  103,  953
1675,  438, 1767, 1011, 1773
1676, 1106, 1768,  496, 1779
1677, 1770, 1019, 1774, 1383
1678, 1786, 1056, 1106, 1779
1679,  758, 1416, 1065,  759
1680, 1834, 1795, 1169, 1428
1681,  482, 1182, 1795, 1834
1682, 1802,  505,  845, 1103
1683, 1823,  538, 1137, 1411
1684, 1824, 1337, 1164, 1828
1685, 1452, 1824, 1828, 1832
1686, 1855, 1838, 1475, 1585
1687, 1596, 1843, 1381, 1881
1688, 1287, 1174, 1847, 1848
1689, 1854, 1590,  412, 1742
1690, 1857,  401, 1872, 1689
1691, 1687, 1848, 1860, 1861
1692, 1874, 1861, 1881, 1538
1693, 1864,  377, 1689, 1872
1694, 1866,  490, 1436, 1626
1695,  452, 1869, 1665, 1870
1696, 1555,  445, 1632, 1651
1697, 1873, 1511,  360, 1529
1698, 1875, 1482,  293, 1603
*Elset, elset=_Airfoil-1_ALL_ELEMENTS, generate
    1,  1698,     1
*Nset, nset=Airfoil-1__G4, generate
    1,  1885,     1
*Elset, elset=Airfoil-1__G4, generate
    1,  1698,     1
** Section: Section-Airfoil
*Solid Section, elset=Airfoil-1__G4, material=Material-Airfoil
,
*System
*Nset, nset=Set-Airfoil-Faces, generate
    1,  1885,     1
*Elset, elset=Set-Airfoil-Faces, generate
    1,  1698,     1
*Nset, nset=_PickedSet6, generate
 13,  24,   1
*Elset, elset=_PickedSet6
   94,   96,  130,  131,  153,  168,  169,  182,  183,  919, 1111, 1114
*Nset, nset=_PickedSet7, generate
  1,  12,   1
*Elset, elset=_PickedSet7
   57,   58,   59,  110,  112,  116,  117,  728,  754, 1104, 1105, 1108
*Nset, nset=_PickedSet8
 288,
*Nset, nset=_PickedSet9
 288,
*Nset, nset=_PickedSet10
 288,
*Nset, nset=_PickedSet11
 587,
*Nset, nset=_PickedSet12
 29,
*Nset, nset=_PickedSet13
 589,
*Nset, nset=_PickedSet14
 32,
*Nset, nset=_PickedSet15
 33,
*Nset, nset=_PickedSet16
 35,
*Nset, nset=_PickedSet17
 36,
*Nset, nset=_PickedSet18
 593,
*Nset, nset=_PickedSet19
 39,
*Nset, nset=_PickedSet20
 40,
*Nset, nset=_PickedSet21
 42,
*Nset, nset=_PickedSet22
 43,
*Nset, nset=_PickedSet23
 597,
*Nset, nset=_PickedSet24
 46,
*Nset, nset=_PickedSet25
 47,
*Nset, nset=_PickedSet26
 49,
*Nset, nset=_PickedSet27
 600,
*Nset, nset=_PickedSet28
 601,
*Nset, nset=_PickedSet29
 53,
*Nset, nset=_PickedSet30
 55,
*Nset, nset=_PickedSet31
 56,
*Nset, nset=_PickedSet32
 604,
*Nset, nset=_PickedSet33
 59,
*Nset, nset=_PickedSet34
 606,
*Nset, nset=_PickedSet35
 62,
*Nset, nset=_PickedSet36
 63,
*Nset, nset=_PickedSet37
 608,
*Nset, nset=_PickedSet38
 609,
*Nset, nset=_PickedSet39
 610,
*Nset, nset=_PickedSet40
 69,
*Nset, nset=_PickedSet41
 70,
*Nset, nset=_PickedSet42
 72,
*Nset, nset=_PickedSet43
 613,
*Nset, nset=_PickedSet44
 75,
*Nset, nset=_PickedSet45
 76,
*Nset, nset=_PickedSet46
 78,
*Nset, nset=_PickedSet47
 79,
*Nset, nset=_PickedSet48
 617,
*Nset, nset=_PickedSet49
 82,
*Nset, nset=_PickedSet50
 84,
*Nset, nset=_PickedSet51
 85,
*Nset, nset=_PickedSet52
 620,
*Nset, nset=_PickedSet53
 621,
*Nset, nset=_PickedSet54
 89,
*Nset, nset=_PickedSet55
 91,
*Nset, nset=_PickedSet56
 92,
*Nset, nset=_PickedSet57
 624,
*Nset, nset=_PickedSet58
 95,
*Nset, nset=_PickedSet59
 626,
*Nset, nset=_PickedSet60
 98,
*Nset, nset=_PickedSet61
 99,
*Nset, nset=_PickedSet62
 628,
*Nset, nset=_PickedSet63
 629,
*Nset, nset=_PickedSet64
 104,
*Nset, nset=_PickedSet65
 105,
*Nset, nset=_PickedSet66
 106,
*Nset, nset=_PickedSet67
 632,
*Nset, nset=_PickedSet68
 633,
*Nset, nset=_PickedSet69
 111,
*Nset, nset=_PickedSet70
 112,
*Nset, nset=_PickedSet71
 635,
*Nset, nset=_PickedSet72
 636,
*Nset, nset=_PickedSet73
 637,
*Nset, nset=_PickedSet74
 118,
*Nset, nset=_PickedSet75
 119,
*Nset, nset=_PickedSet76
 639,
*Nset, nset=_PickedSet77
 122,
*Nset, nset=_PickedSet78
 641,
*Nset, nset=_PickedSet79
 125,
*Nset, nset=_PickedSet80
 126,
*Nset, nset=_PickedSet81
 643,
*Nset, nset=_PickedSet82
 644,
*Nset, nset=_PickedSet83
 131,
*Nset, nset=_PickedSet84
 132,
*Nset, nset=_PickedSet85
 133,
*Nset, nset=_PickedSet86
 647,
*Nset, nset=_PickedSet87
 136,
*Nset, nset=_PickedSet88
 138,
*Nset, nset=_PickedSet89
 139,
*Nset, nset=_PickedSet90
 650,
*Nset, nset=_PickedSet91
 142,
*Nset, nset=_PickedSet92
 143,
*Nset, nset=_PickedSet93
 144,
*Nset, nset=_PickedSet94
 653,
*Nset, nset=_PickedSet95
 147,
*Nset, nset=_PickedSet96
 148,
*Nset, nset=_PickedSet97
 655,
*Nset, nset=_PickedSet98
 151,
*Nset, nset=_PickedSet99
 152,
*Nset, nset=_PickedSet100
 657,
*Nset, nset=_PickedSet101
 153,
*Nset, nset=_PickedSet102
 154,
*Nset, nset=_PickedSet103
 156,
*Nset, nset=_PickedSet104
 156,
*Nset, nset=_PickedSet105
 157,
*Nset, nset=_PickedSet106
 158,
*Nset, nset=_PickedSet107
 159,
*Nset, nset=_PickedSet108
 658,
*Nset, nset=_PickedSet109
 161,
*Nset, nset=_PickedSet110
 659,
*Nset, nset=_PickedSet111
 163,
*Nset, nset=_PickedSet112
 661,
*Nset, nset=_PickedSet113
 166,
*Nset, nset=_PickedSet114
 167,
*Nset, nset=_PickedSet115
 663,
*Nset, nset=_PickedSet116
 170,
*Nset, nset=_PickedSet117
 171,
*Nset, nset=_PickedSet118
 665,
*Nset, nset=_PickedSet119
 174,
*Nset, nset=_PickedSet120
 667,
*Nset, nset=_PickedSet121
 177,
*Nset, nset=_PickedSet122
 178,
*Nset, nset=_PickedSet123
 669,
*Nset, nset=_PickedSet124
 670,
*Nset, nset=_PickedSet125
 671,
*Nset, nset=_PickedSet126
 184,
*Nset, nset=_PickedSet127
 185,
*Nset, nset=_PickedSet128
 673,
*Nset, nset=_PickedSet129
 674,
*Nset, nset=_PickedSet130
 190,
*Nset, nset=_PickedSet131
 191,
*Nset, nset=_PickedSet132
 192,
*Nset, nset=_PickedSet133
 677,
*Nset, nset=_PickedSet134
 678,
*Nset, nset=_PickedSet135
 197,
*Nset, nset=_PickedSet136
 198,
*Nset, nset=_PickedSet137
 680,
*Nset, nset=_PickedSet138
 201,
*Nset, nset=_PickedSet139
 682,
*Nset, nset=_PickedSet140
 204,
*Nset, nset=_PickedSet141
 205,
*Nset, nset=_PickedSet142
 207,
*Nset, nset=_PickedSet143
 208,
*Nset, nset=_PickedSet144
 686,
*Nset, nset=_PickedSet145
 211,
*Nset, nset=_PickedSet146
 212,
*Nset, nset=_PickedSet147
 214,
*Nset, nset=_PickedSet148
 689,
*Nset, nset=_PickedSet149
 690,
*Nset, nset=_PickedSet150
 218,
*Nset, nset=_PickedSet151
 220,
*Nset, nset=_PickedSet152
 221,
*Nset, nset=_PickedSet153
 693,
*Nset, nset=_PickedSet154
 694,
*Nset, nset=_PickedSet155
 695,
*Nset, nset=_PickedSet156
 227,
*Nset, nset=_PickedSet157
 228,
*Nset, nset=_PickedSet158
 697,
*Nset, nset=_PickedSet159
 698,
*Nset, nset=_PickedSet160
 699,
*Nset, nset=_PickedSet161
 234,
*Nset, nset=_PickedSet162
 235,
*Nset, nset=_PickedSet163
 701,
*Nset, nset=_PickedSet164
 702,
*Nset, nset=_PickedSet165
 703,
*Nset, nset=_PickedSet166
 241,
*Nset, nset=_PickedSet167
 242,
*Nset, nset=_PickedSet168
 244,
*Nset, nset=_PickedSet169
 706,
*Nset, nset=_PickedSet170
 247,
*Nset, nset=_PickedSet171
 248,
*Nset, nset=_PickedSet172
 249,
*Nset, nset=_PickedSet173
 251,
*Nset, nset=_PickedSet174
 710,
*Nset, nset=_PickedSet175
 254,
*Nset, nset=_PickedSet176
 255,
*Nset, nset=_PickedSet177
 257,
*Nset, nset=_PickedSet178
 258,
*Nset, nset=_PickedSet179
 714,
*Nset, nset=_PickedSet180
 261,
*Nset, nset=_PickedSet181
 716,
*Nset, nset=_PickedSet182
 264,
*Nset, nset=_PickedSet183
 265,
*Nset, nset=_PickedSet184
 718,
*Nset, nset=_PickedSet185
 268,
*Nset, nset=_PickedSet186
 270,
*Nset, nset=_PickedSet187
 271,
*Nset, nset=_PickedSet188
 272,
*Nset, nset=_PickedSet189
 722,
*Nset, nset=_PickedSet190
 275,
*Nset, nset=_PickedSet191
 276,
*Nset, nset=_PickedSet192
 278,
*Nset, nset=_PickedSet193
 279,
*Nset, nset=_PickedSet194
 726,
*Nset, nset=_PickedSet195
 282,
*Nset, nset=_PickedSet196
 728,
*Nset, nset=_PickedSet197
 287,
*Nset, nset=_PickedSet198
 287,
*Nset, nset=_PickedSet199
 288,
*Nset, nset=_PickedSet201, generate
    1,  1885,     1
*Elset, elset=_PickedSet201, generate
    1,  1698,     1
** 
** MATERIALS
** 
*Material, name=Material-Airfoil
*Density
2700.,
*Elastic
 7e+10, 0.33
** 
** BOUNDARY CONDITIONS
** 
** Name: BC-Hole1 Type: Displacement/Rotation
*Boundary
_PickedSet6, 1, 1
_PickedSet6, 2, 2
_PickedSet6, 6, 6
** Name: BC-Hole2 Type: Displacement/Rotation
*Boundary
_PickedSet7, 1, 1
_PickedSet7, 2, 2
_PickedSet7, 6, 6
** ----------------------------------------------------------------
** 
** STEP: Step-1
** 
*Step, name=Step-1, nlgeom=NO
*Static
1., 1., 1e-05, 1.
** 
** LOADS
** 
** Name: Force-1   Type: Concentrated force
*Cload
_PickedSet8, 2, 0.00313959
** Name: Force-2   Type: Concentrated force
*Cload
_PickedSet9, 2, -0.0257411
** Name: Force-3   Type: Concentrated force
*Cload
_PickedSet10, 2, -0.0257411
** Name: Force-4   Type: Concentrated force
*Cload
_PickedSet11, 2, 0.0148836
** Name: Force-5   Type: Concentrated force
*Cload
_PickedSet12, 2, -0.0149755
** Name: Force-6   Type: Concentrated force
*Cload
_PickedSet13, 2, -0.0417537
** Name: Force-7   Type: Concentrated force
*Cload
_PickedSet14, 2, -0.0669301
** Name: Force-8   Type: Concentrated force
*Cload
_PickedSet15, 2, -0.0914377
** Name: Force-9   Type: Concentrated force
*Cload
_PickedSet16, 2, -0.114973
** Name: Force-10   Type: Concentrated force
*Cload
_PickedSet17, 2, -0.137372
** Name: Force-11   Type: Concentrated force
*Cload
_PickedSet18, 2, -0.158614
** Name: Force-12   Type: Concentrated force
*Cload
_PickedSet19, 2, -0.178544
** Name: Force-13   Type: Concentrated force
*Cload
_PickedSet20, 2, -0.196764
** Name: Force-14   Type: Concentrated force
*Cload
_PickedSet21, 2, -0.212667
** Name: Force-15   Type: Concentrated force
*Cload
_PickedSet22, 2, -0.22624
** Name: Force-16   Type: Concentrated force
*Cload
_PickedSet23, 2, -0.237287
** Name: Force-17   Type: Concentrated force
*Cload
_PickedSet24, 2, -0.244888
** Name: Force-18   Type: Concentrated force
*Cload
_PickedSet25, 2, -0.248477
** Name: Force-19   Type: Concentrated force
*Cload
_PickedSet26, 2, -0.248248
** Name: Force-20   Type: Concentrated force
*Cload
_PickedSet27, 2, -0.245101
** Name: Force-21   Type: Concentrated force
*Cload
_PickedSet28, 2, -0.240767
** Name: Force-22   Type: Concentrated force
*Cload
_PickedSet29, 2, -0.238627
** Name: Force-23   Type: Concentrated force
*Cload
_PickedSet30, 2, -0.238262
** Name: Force-24   Type: Concentrated force
*Cload
_PickedSet31, 2, -0.239464
** Name: Force-25   Type: Concentrated force
*Cload
_PickedSet32, 2, -0.242338
** Name: Force-26   Type: Concentrated force
*Cload
_PickedSet33, 2, -0.246677
** Name: Force-27   Type: Concentrated force
*Cload
_PickedSet34, 2, -0.252133
** Name: Force-28   Type: Concentrated force
*Cload
_PickedSet35, 2, -0.259518
** Name: Force-29   Type: Concentrated force
*Cload
_PickedSet36, 2, -0.267964
** Name: Force-30   Type: Concentrated force
*Cload
_PickedSet37, 2, -0.277123
** Name: Force-31   Type: Concentrated force
*Cload
_PickedSet38, 2, -0.287246
** Name: Force-32   Type: Concentrated force
*Cload
_PickedSet39, 2, -0.297456
** Name: Force-33   Type: Concentrated force
*Cload
_PickedSet40, 2, -0.307806
** Name: Force-34   Type: Concentrated force
*Cload
_PickedSet41, 2, -0.318222
** Name: Force-35   Type: Concentrated force
*Cload
_PickedSet42, 2, -0.328664
** Name: Force-36   Type: Concentrated force
*Cload
_PickedSet43, 2, -0.339364
** Name: Force-37   Type: Concentrated force
*Cload
_PickedSet44, 2, -0.35008
** Name: Force-38   Type: Concentrated force
*Cload
_PickedSet45, 2, -0.360841
** Name: Force-39   Type: Concentrated force
*Cload
_PickedSet46, 2, -0.371385
** Name: Force-40   Type: Concentrated force
*Cload
_PickedSet47, 2, -0.38163
** Name: Force-41   Type: Concentrated force
*Cload
_PickedSet48, 2, -0.391179
** Name: Force-42   Type: Concentrated force
*Cload
_PickedSet49, 2, -0.400265
** Name: Force-43   Type: Concentrated force
*Cload
_PickedSet50, 2, -0.408449
** Name: Force-44   Type: Concentrated force
*Cload
_PickedSet51, 2, -0.416348
** Name: Force-45   Type: Concentrated force
*Cload
_PickedSet52, 2, -0.423649
** Name: Force-46   Type: Concentrated force
*Cload
_PickedSet53, 2, -0.430882
** Name: Force-47   Type: Concentrated force
*Cload
_PickedSet54, 2, -0.438068
** Name: Force-48   Type: Concentrated force
*Cload
_PickedSet55, 2, -0.445465
** Name: Force-49   Type: Concentrated force
*Cload
_PickedSet56, 2, -0.454042
** Name: Force-50   Type: Concentrated force
*Cload
_PickedSet57, 2, -0.463752
** Name: Force-51   Type: Concentrated force
*Cload
_PickedSet58, 2, -0.476244
** Name: Force-52   Type: Concentrated force
*Cload
_PickedSet59, 2, -0.490837
** Name: Force-53   Type: Concentrated force
*Cload
_PickedSet60, 2, -0.508173
** Name: Force-54   Type: Concentrated force
*Cload
_PickedSet61, 2, -0.527738
** Name: Force-55   Type: Concentrated force
*Cload
_PickedSet62, 2, -0.549138
** Name: Force-56   Type: Concentrated force
*Cload
_PickedSet63, 2, -0.572329
** Name: Force-57   Type: Concentrated force
*Cload
_PickedSet64, 2, -0.595953
** Name: Force-58   Type: Concentrated force
*Cload
_PickedSet65, 2, -0.619326
** Name: Force-59   Type: Concentrated force
*Cload
_PickedSet66, 2, -0.642125
** Name: Force-60   Type: Concentrated force
*Cload
_PickedSet67, 2, -0.660415
** Name: Force-61   Type: Concentrated force
*Cload
_PickedSet68, 2, -0.676431
** Name: Force-62   Type: Concentrated force
*Cload
_PickedSet69, 2, -0.685708
** Name: Force-63   Type: Concentrated force
*Cload
_PickedSet70, 2, -0.691176
** Name: Force-64   Type: Concentrated force
*Cload
_PickedSet71, 2, -0.692584
** Name: Force-65   Type: Concentrated force
*Cload
_PickedSet72, 2, -0.691348
** Name: Force-66   Type: Concentrated force
*Cload
_PickedSet73, 2, -0.68925
** Name: Force-67   Type: Concentrated force
*Cload
_PickedSet74, 2, -0.686788
** Name: Force-68   Type: Concentrated force
*Cload
_PickedSet75, 2, -0.685364
** Name: Force-69   Type: Concentrated force
*Cload
_PickedSet76, 2, -0.68508
** Name: Force-70   Type: Concentrated force
*Cload
_PickedSet77, 2, -0.689801
** Name: Force-71   Type: Concentrated force
*Cload
_PickedSet78, 2, -0.698546
** Name: Force-72   Type: Concentrated force
*Cload
_PickedSet79, 2, -0.712479
** Name: Force-73   Type: Concentrated force
*Cload
_PickedSet80, 2, -0.735213
** Name: Force-74   Type: Concentrated force
*Cload
_PickedSet81, 2, -0.761673
** Name: Force-75   Type: Concentrated force
*Cload
_PickedSet82, 2, -0.791458
** Name: Force-76   Type: Concentrated force
*Cload
_PickedSet83, 2, -0.823502
** Name: Force-77   Type: Concentrated force
*Cload
_PickedSet84, 2, -0.855944
** Name: Force-78   Type: Concentrated force
*Cload
_PickedSet85, 2, -0.888059
** Name: Force-79   Type: Concentrated force
*Cload
_PickedSet86, 2, -0.919305
** Name: Force-80   Type: Concentrated force
*Cload
_PickedSet87, 2, -0.949147
** Name: Force-81   Type: Concentrated force
*Cload
_PickedSet88, 2, -0.977242
** Name: Force-82   Type: Concentrated force
*Cload
_PickedSet89, 2, -1.00332
** Name: Force-83   Type: Concentrated force
*Cload
_PickedSet90, 2, -1.02699
** Name: Force-84   Type: Concentrated force
*Cload
_PickedSet91, 2, -1.04785
** Name: Force-85   Type: Concentrated force
*Cload
_PickedSet92, 2, -1.065
** Name: Force-86   Type: Concentrated force
*Cload
_PickedSet93, 2, -1.07771
** Name: Force-87   Type: Concentrated force
*Cload
_PickedSet94, 2, -1.0859
** Name: Force-88   Type: Concentrated force
*Cload
_PickedSet95, 2, -1.08975
** Name: Force-89   Type: Concentrated force
*Cload
_PickedSet96, 2, -1.08965
** Name: Force-90   Type: Concentrated force
*Cload
_PickedSet97, 2, -1.08427
** Name: Force-91   Type: Concentrated force
*Cload
_PickedSet98, 2, -1.06973
** Name: Force-92   Type: Concentrated force
*Cload
_PickedSet99, 2, -1.03763
** Name: Force-93   Type: Concentrated force
*Cload
_PickedSet100, 2, -0.984205
** Name: Force-94   Type: Concentrated force
*Cload
_PickedSet101, 2, -0.898642
** Name: Force-95   Type: Concentrated force
*Cload
_PickedSet102, 2, -0.726923
** Name: Force-96   Type: Concentrated force
*Cload
_PickedSet103, 2, 0.00170994
** Name: Force-97   Type: Concentrated force
*Cload
_PickedSet104, 2, 0.00170994
** Name: Force-98   Type: Concentrated force
*Cload
_PickedSet105, 2, 1.05428
** Name: Force-99   Type: Concentrated force
*Cload
_PickedSet106, 2, 0.972171
** Name: Force-100   Type: Concentrated force
*Cload
_PickedSet107, 2, 0.772791
** Name: Force-101   Type: Concentrated force
*Cload
_PickedSet108, 2, 0.619956
** Name: Force-102   Type: Concentrated force
*Cload
_PickedSet109, 2, 0.500725
** Name: Force-103   Type: Concentrated force
*Cload
_PickedSet110, 2, 0.403392
** Name: Force-104   Type: Concentrated force
*Cload
_PickedSet111, 2, 0.335501
** Name: Force-105   Type: Concentrated force
*Cload
_PickedSet112, 2, 0.292709
** Name: Force-106   Type: Concentrated force
*Cload
_PickedSet113, 2, 0.262352
** Name: Force-107   Type: Concentrated force
*Cload
_PickedSet114, 2, 0.240736
** Name: Force-108   Type: Concentrated force
*Cload
_PickedSet115, 2, 0.224231
** Name: Force-109   Type: Concentrated force
*Cload
_PickedSet116, 2, 0.211636
** Name: Force-110   Type: Concentrated force
*Cload
_PickedSet117, 2, 0.201546
** Name: Force-111   Type: Concentrated force
*Cload
_PickedSet118, 2, 0.193288
** Name: Force-112   Type: Concentrated force
*Cload
_PickedSet119, 2, 0.186542
** Name: Force-113   Type: Concentrated force
*Cload
_PickedSet120, 2, 0.18102
** Name: Force-114   Type: Concentrated force
*Cload
_PickedSet121, 2, 0.176355
** Name: Force-115   Type: Concentrated force
*Cload
_PickedSet122, 2, 0.172196
** Name: Force-116   Type: Concentrated force
*Cload
_PickedSet123, 2, 0.168382
** Name: Force-117   Type: Concentrated force
*Cload
_PickedSet124, 2, 0.165076
** Name: Force-118   Type: Concentrated force
*Cload
_PickedSet125, 2, 0.162237
** Name: Force-119   Type: Concentrated force
*Cload
_PickedSet126, 2, 0.15993
** Name: Force-120   Type: Concentrated force
*Cload
_PickedSet127, 2, 0.158326
** Name: Force-121   Type: Concentrated force
*Cload
_PickedSet128, 2, 0.158323
** Name: Force-122   Type: Concentrated force
*Cload
_PickedSet129, 2, 0.159391
** Name: Force-123   Type: Concentrated force
*Cload
_PickedSet130, 2, 0.161582
** Name: Force-124   Type: Concentrated force
*Cload
_PickedSet131, 2, 0.164945
** Name: Force-125   Type: Concentrated force
*Cload
_PickedSet132, 2, 0.168705
** Name: Force-126   Type: Concentrated force
*Cload
_PickedSet133, 2, 0.172966
** Name: Force-127   Type: Concentrated force
*Cload
_PickedSet134, 2, 0.177507
** Name: Force-128   Type: Concentrated force
*Cload
_PickedSet135, 2, 0.18208
** Name: Force-129   Type: Concentrated force
*Cload
_PickedSet136, 2, 0.186403
** Name: Force-130   Type: Concentrated force
*Cload
_PickedSet137, 2, 0.19012
** Name: Force-131   Type: Concentrated force
*Cload
_PickedSet138, 2, 0.193145
** Name: Force-132   Type: Concentrated force
*Cload
_PickedSet139, 2, 0.194487
** Name: Force-133   Type: Concentrated force
*Cload
_PickedSet140, 2, 0.195243
** Name: Force-134   Type: Concentrated force
*Cload
_PickedSet141, 2, 0.194282
** Name: Force-135   Type: Concentrated force
*Cload
_PickedSet142, 2, 0.193174
** Name: Force-136   Type: Concentrated force
*Cload
_PickedSet143, 2, 0.191563
** Name: Force-137   Type: Concentrated force
*Cload
_PickedSet144, 2, 0.189967
** Name: Force-138   Type: Concentrated force
*Cload
_PickedSet145, 2, 0.188394
** Name: Force-139   Type: Concentrated force
*Cload
_PickedSet146, 2, 0.187028
** Name: Force-140   Type: Concentrated force
*Cload
_PickedSet147, 2, 0.185876
** Name: Force-141   Type: Concentrated force
*Cload
_PickedSet148, 2, 0.185293
** Name: Force-142   Type: Concentrated force
*Cload
_PickedSet149, 2, 0.185051
** Name: Force-143   Type: Concentrated force
*Cload
_PickedSet150, 2, 0.185646
** Name: Force-144   Type: Concentrated force
*Cload
_PickedSet151, 2, 0.186527
** Name: Force-145   Type: Concentrated force
*Cload
_PickedSet152, 2, 0.187873
** Name: Force-146   Type: Concentrated force
*Cload
_PickedSet153, 2, 0.189291
** Name: Force-147   Type: Concentrated force
*Cload
_PickedSet154, 2, 0.190581
** Name: Force-148   Type: Concentrated force
*Cload
_PickedSet155, 2, 0.191848
** Name: Force-149   Type: Concentrated force
*Cload
_PickedSet156, 2, 0.192919
** Name: Force-150   Type: Concentrated force
*Cload
_PickedSet157, 2, 0.193925
** Name: Force-151   Type: Concentrated force
*Cload
_PickedSet158, 2, 0.194704
** Name: Force-152   Type: Concentrated force
*Cload
_PickedSet159, 2, 0.195262
** Name: Force-153   Type: Concentrated force
*Cload
_PickedSet160, 2, 0.195412
** Name: Force-154   Type: Concentrated force
*Cload
_PickedSet161, 2, 0.195339
** Name: Force-155   Type: Concentrated force
*Cload
_PickedSet162, 2, 0.195043
** Name: Force-156   Type: Concentrated force
*Cload
_PickedSet163, 2, 0.194628
** Name: Force-157   Type: Concentrated force
*Cload
_PickedSet164, 2, 0.194152
** Name: Force-158   Type: Concentrated force
*Cload
_PickedSet165, 2, 0.193459
** Name: Force-159   Type: Concentrated force
*Cload
_PickedSet166, 2, 0.192712
** Name: Force-160   Type: Concentrated force
*Cload
_PickedSet167, 2, 0.191784
** Name: Force-161   Type: Concentrated force
*Cload
_PickedSet168, 2, 0.190788
** Name: Force-162   Type: Concentrated force
*Cload
_PickedSet169, 2, 0.189676
** Name: Force-163   Type: Concentrated force
*Cload
_PickedSet170, 2, 0.188524
** Name: Force-164   Type: Concentrated force
*Cload
_PickedSet171, 2, 0.18737
** Name: Force-165   Type: Concentrated force
*Cload
_PickedSet172, 2, 0.186608
** Name: Force-166   Type: Concentrated force
*Cload
_PickedSet173, 2, 0.18628
** Name: Force-167   Type: Concentrated force
*Cload
_PickedSet174, 2, 0.186516
** Name: Force-168   Type: Concentrated force
*Cload
_PickedSet175, 2, 0.187825
** Name: Force-169   Type: Concentrated force
*Cload
_PickedSet176, 2, 0.189712
** Name: Force-170   Type: Concentrated force
*Cload
_PickedSet177, 2, 0.192279
** Name: Force-171   Type: Concentrated force
*Cload
_PickedSet178, 2, 0.196647
** Name: Force-172   Type: Concentrated force
*Cload
_PickedSet179, 2, 0.202351
** Name: Force-173   Type: Concentrated force
*Cload
_PickedSet180, 2, 0.209089
** Name: Force-174   Type: Concentrated force
*Cload
_PickedSet181, 2, 0.215925
** Name: Force-175   Type: Concentrated force
*Cload
_PickedSet182, 2, 0.220769
** Name: Force-176   Type: Concentrated force
*Cload
_PickedSet183, 2, 0.223411
** Name: Force-177   Type: Concentrated force
*Cload
_PickedSet184, 2, 0.223908
** Name: Force-178   Type: Concentrated force
*Cload
_PickedSet185, 2, 0.222633
** Name: Force-179   Type: Concentrated force
*Cload
_PickedSet186, 2, 0.219988
** Name: Force-180   Type: Concentrated force
*Cload
_PickedSet187, 2, 0.216012
** Name: Force-181   Type: Concentrated force
*Cload
_PickedSet188, 2, 0.210802
** Name: Force-182   Type: Concentrated force
*Cload
_PickedSet189, 2, 0.204625
** Name: Force-183   Type: Concentrated force
*Cload
_PickedSet190, 2, 0.197695
** Name: Force-184   Type: Concentrated force
*Cload
_PickedSet191, 2, 0.18993
** Name: Force-185   Type: Concentrated force
*Cload
_PickedSet192, 2, 0.181297
** Name: Force-186   Type: Concentrated force
*Cload
_PickedSet193, 2, 0.170878
** Name: Force-187   Type: Concentrated force
*Cload
_PickedSet194, 2, 0.158339
** Name: Force-188   Type: Concentrated force
*Cload
_PickedSet195, 2, 0.144544
** Name: Force-189   Type: Concentrated force
*Cload
_PickedSet196, 2, 0.126714
** Name: Force-190   Type: Concentrated force
*Cload
_PickedSet197, 2, -0.027126
** Name: Force-191   Type: Concentrated force
*Cload
_PickedSet198, 2, -0.027126
** Name: Force-192   Type: Concentrated force
*Cload
_PickedSet199, 2, 0.00313959
** 
** OUTPUT REQUESTS
** 
*Restart, write, frequency=0
** 
** FIELD OUTPUT: F-Output-1
** 
*Output, field, variable=PRESELECT
** 
** HISTORY OUTPUT: H-Output-1
** 
*Output, history, variable=PRESELECT
*End Step
