*Heading
 Job TopOpt
** Job name: TopOptJob_20251120_194950 Model name: Model-1
** Generated by: Abaqus/CAE 2024.HF2
*Preprint, echo=NO, model=NO, history=NO, contact=NO
**
** PARTS
**
*Part, name=Airfoil
*End Part
**  
**
** ASSEMBLY
**
*Assembly, name=Assembly
**  
*Instance, name=Airfoil-1, part=Airfoil
*Node
      1,  0.404573649, 0.0106735565
      2,  0.400949985, 0.0070499056
      3,  0.395999998, 0.00572355697
      4,  0.391049981, 0.0070499056
      5,  0.387426347, 0.0106735565
      6,  0.386099994, 0.0156235574
      7,  0.387426347, 0.0205735564
      8,  0.391049981, 0.0241972078
      9,  0.395999998, 0.0255235564
     10,  0.400949985, 0.0241972078
     11,  0.404573649, 0.0205735564
     12,  0.405900002, 0.0156235574
     13,  0.206573635, 0.0106735565
     14,  0.202949986, 0.0070499056
     15,  0.197999984, 0.00572355697
     16,  0.193049982, 0.0070499056
     17,  0.189426333, 0.0106735565
     18,   0.18809998, 0.0156235574
     19,  0.189426333, 0.0205735564
     20,  0.193049982, 0.0241972078
     21,  0.197999984, 0.0255235564
     22,  0.202949986, 0.0241972078
     23,  0.206573635, 0.0205735564
     24,  0.207899988, 0.0156235574
     25,   0.99000001, -2.22222411e-06
     26,   0.99000001, 0.000626783702
     27,   0.99000001,  0.001046121
     28,  0.978922546, 0.00295546209
     29,  0.967861235, 0.00478705019
     30,  0.956820786, 0.0065852562
     31,  0.945800662, 0.00834233686
     32,  0.934800327, 0.0100506637
     33,  0.923819304, 0.0117027201
     34,  0.912857056, 0.0132911028
     35,  0.901913047, 0.0148085225
     36,  0.890986919, 0.0162477959
     37,  0.880078077, 0.0176018514
     38,  0.869186044, 0.0188637264
     39,  0.858279169, 0.0200326312
     40,  0.847321153,  0.021120213
     41,  0.836312771, 0.0221375823
     42,  0.825254738, 0.0230961032
     43,  0.814148068, 0.0240074173
     44,  0.802993596, 0.0248834416
     45,  0.791792274, 0.0257363897
     46,  0.780558407, 0.0265766587
     47,  0.769314647, 0.0274075996
     48,  0.758061349, 0.0282317996
     49,  0.746798575, 0.0290518794
     50,  0.735526681, 0.0298704542
     51,  0.724257827, 0.0306892879
     52,  0.712998211, 0.0315105692
     53,  0.701744735, 0.0323369801
     54,  0.690483868, 0.0331691876
     55,   0.67921418, 0.0340048708
     56,  0.667942166, 0.0348410495
     57,  0.656678498, 0.0356744304
     58,  0.645423234, 0.0365025289
     59,  0.634176195, 0.0373228714
     60,  0.622937262, 0.0381330028
     61,  0.611706316, 0.0389304832
     62,  0.600483239, 0.0397128724
     63,   0.58926791, 0.0404777564
     64,   0.57806021, 0.0412227176
     65,   0.56686002, 0.0419453606
     66,  0.555667162, 0.0426432937
     67,  0.544481575,  0.043314144
     68,  0.533303142, 0.0439555421
     69,  0.522131681, 0.0445651338
     70,  0.510967135, 0.0451405756
     71,  0.499809355,  0.045679532
     72,  0.488657475,  0.046179723
     73,  0.477473855, 0.0466446392
     74,  0.466237098, 0.0470876768
     75,  0.454953611, 0.0475230552
     76,  0.443700075, 0.0479625762
     77,   0.43249774, 0.0484199934
     78,  0.421319842, 0.0489092693
     79,  0.410054356, 0.0494245552
     80,  0.398841619, 0.0499287657
     81,  0.387737542, 0.0503888167
     82,  0.376739055,  0.050776042
     83,  0.365842938, 0.0510634035
     84,  0.354967833, 0.0512341596
     85,   0.34405309,  0.051294826
     86,  0.333098203, 0.0512554608
     87,  0.322102696,  0.051126346
     88,   0.31106618, 0.0509179905
     89,   0.29998827, 0.0506411567
     90,  0.288868606, 0.0503068417
     91,  0.277706772, 0.0499262996
     92,   0.26650241, 0.0495110489
     93,  0.255255133, 0.0490728766
     94,  0.244001508, 0.0486221313
     95,  0.232792228, 0.0481537916
     96,  0.221628264, 0.0476559773
     97,  0.210510328, 0.0471170731
     98,  0.199439079, 0.0465257205
     99,  0.188415185, 0.0458708219
    100,  0.177439272, 0.0451415367
    101,  0.166511938, 0.0443272591
    102,  0.155633703, 0.0434176251
    103,  0.144805059, 0.0424024947
    104,  0.134026408, 0.0412719324
    105,  0.123298034, 0.0400162153
    106,  0.112620145, 0.0386258028
    107,  0.101992808, 0.0370913222
    108, 0.0914698839, 0.0354083069
    109, 0.0811502412, 0.0335585177
    110, 0.0710472241, 0.0315059312
    111,  0.061171215, 0.0292179678
    112, 0.0515304618, 0.0266651697
    113, 0.0421307161, 0.0238205325
    114, 0.0329748988, 0.0206587128
    115, 0.0240629874, 0.0171551164
    116, 0.0156859197, 0.0134117659
    117, 0.00968127791, 0.0101322429
    118, 0.00538163725, 0.00699841976
    119, 0.00215101149, 0.00376560632
    120, -1.56043996e-08, 4.72876418e-05
    121, 0.00102050963, -0.00166534691
    122, 0.00322357961, -0.00324756326
    123, 0.00762673328, -0.00532743009
    124, 0.0133923683, -0.00717614777
    125, 0.0205301922, -0.00861409586
    126,  0.029847756, -0.00979797915
    127, 0.0401894897,  -0.01082836
    128, 0.0506005771, -0.0116579225
    129, 0.0610843636, -0.0123038171
    130, 0.0716438442, -0.0127837993
    131, 0.0822817087, -0.0131163392
    132, 0.0930004567, -0.0133207086
    133,  0.103802398, -0.0134170614
    134,   0.11468976, -0.0134265097
    135,  0.125652745, -0.0133706536
    136,  0.136635527, -0.0132617773
    137,  0.147630706, -0.013103283
    138,   0.15863812, -0.0128982784
    139,  0.169657648, -0.012649891
    140,  0.180689156, -0.0123612657
    141,  0.191732511, -0.012035572
    142,  0.202787563, -0.0116759986
    143,  0.213854194, -0.011285753
    144,  0.224932268, -0.0108680669
    145,  0.236021638, -0.0104261916
    146,  0.247122169, -0.0099633988
    147,  0.258233726, -0.00948298257
    148,  0.269356161, -0.00898825843
    149,  0.280489385, -0.00848256145
    150,  0.291632652, -0.00796923228
    151,  0.302784771, -0.00745128654
    152,  0.313943416, -0.00693164626
    153,  0.325093806, -0.0064138216
    154,  0.336233854, -0.00590072246
    155,   0.34736383, -0.00539513025
    156,  0.358484149, -0.004899811
    157,  0.369595081, -0.00441751489
    158,  0.380696982, -0.00395097816
    159,  0.391790211, -0.00350292237
    160,  0.402876347, -0.00307596591
    161,  0.413970649, -0.0026700208
    162,  0.425077379, -0.00228217221
    163,  0.436196268, -0.0019093937
    164,  0.447327137, -0.00154864055
    165,  0.458469719, -0.00119684974
    166,  0.469623804, -0.000850939658
    167,  0.480789155, -0.000507810269
    168,  0.491954356, -0.000164687881
    169,  0.503107965, 0.000181200419
    170,  0.514260888, 0.000532296079
    171,  0.525425375, 0.000886722235
    172,  0.536586344, 0.00124056346
    173,  0.547734737, 0.00159010105
    174,  0.558870852, 0.00193192938
    175,  0.569994807, 0.00226266542
    176,  0.581106782, 0.00257894862
    177,  0.592207074, 0.0028774403
    178,  0.603295803, 0.00315482332
    179,  0.614373207, 0.0034078029
    180,  0.625439465, 0.00363310543
    181,  0.636507511, 0.00382871483
    182,  0.647598803, 0.00399889098
    183,  0.658713639, 0.00414986257
    184,  0.669851959,  0.004287933
    185,  0.681013644, 0.00441948511
    186,  0.692177773, 0.00455073174
    187,  0.703318655, 0.00468783733
    188,  0.714436173, 0.0048371926
    189,  0.725535214, 0.00500498898
    190,   0.73665452, 0.0051916549
    191,  0.747802734, 0.00538969599
    192,  0.758966804, 0.00559069635
    193,  0.770104349, 0.00578566035
    194,  0.781212747, 0.00596640306
    195,  0.792292356, 0.00612492301
    196,  0.803343534, 0.00625334494
    197,  0.814366698, 0.00634391513
    198,  0.825365901, 0.00638932968
    199,  0.836346388, 0.0063840081
    200,  0.847307801, 0.00632292731
    201,  0.858249664, 0.00620111823
    202,   0.86917156, 0.00601366255
    203,  0.880074322, 0.00575568853
    204,  0.890984058, 0.00542480499
    205,  0.901912093, 0.00502526853
    206,  0.912858546, 0.00456243288
    207,  0.923823357, 0.00404171133
    208,  0.934806645, 0.00346858241
    209,  0.945808291, 0.0028485856
    210,  0.956828475, 0.00218732562
    211,  0.967867136, 0.00149047235
    212,  0.978924274, 0.000763760239
    213,  0.410662562, 0.0161085054
    214,  0.420550406, 0.0153978262
    215,  0.431187749, 0.0133640692
    216,  0.441395432, 0.0128079168
    217,  0.451633185, 0.0149287395
    218,  0.462093413, 0.0152957942
    219,  0.472533971,  0.013827309
    220,  0.481916308, 0.0150154764
    221,   0.49757579, 0.0162293762
    222,  0.507541358, 0.0154716931
    223,  0.517024279, 0.0146570746
    224,   0.52690357, 0.0143019482
    225,  0.536558151, 0.0154158073
    226,  0.546734035,  0.017500056
    227,  0.558588266, 0.0125402156
    228,  0.570553124, 0.0129943686
    229,  0.581442714, 0.0113042044
    230,  0.591652513, 0.0143839354
    231,  0.603785038, 0.0127611579
    232,  0.613449454, 0.0129387286
    233,  0.618798614, 0.0138941156
    234,  0.631601691, 0.0140890833
    235,  0.642682195, 0.0145846335
    236,  0.653517425, 0.0138366204
    237,  0.664093435, 0.0139268702
    238,  0.674914837, 0.0142649338
    239,    0.6858989, 0.0144306738
    240,  0.696846366, 0.0146552995
    241,  0.708761692, 0.0166240353
    242,  0.727011561, 0.0153226983
    243,  0.738349855, 0.0148764206
    244,  0.749648571, 0.0142111974
    245,  0.758580983, 0.0117127718
    246,  0.766957879, 0.0147229489
    247,   0.77987206, 0.0163519047
    248,  0.794083893, 0.0158876572
    249,  0.802666068, 0.0153355682
    250,    0.8117432,  0.016051013
    251,  0.824808121, 0.0175259765
    252,  0.835834563, 0.0153748244
    253,  0.840982378, 0.0183271579
    254,  0.850940764,  0.016123686
    255,  0.861800313, 0.0150987441
    256,  0.872602642, 0.0140832085
    257,  0.763744712, 0.0232687574
    258,  0.751807213, 0.0235312693
    259,   0.74020946,  0.024502296
    260,  0.728901446, 0.0252995938
    261,  0.716582656, 0.0212443862
    262,  0.706388414, 0.0235252846
    263,  0.696092844, 0.0240406208
    264,  0.685220897, 0.0242053401
    265,  0.674157679, 0.0243278239
    266,  0.663214982, 0.0240655169
    267,  0.653765738, 0.0220483746
    268,  0.632369459, 0.0235293508
    269,  0.624043405, 0.0250181109
    270,  0.615638793, 0.0236419626
    271,  0.602440238, 0.0240847096
    272,  0.589522719, 0.0221026335
    273,  0.581710696, 0.0252449065
    274,  0.567377865, 0.0232134685
    275,  0.548698187, 0.0240040775
    276,  0.537951827, 0.0206824839
    277,  0.524748087, 0.0232068431
    278,  0.515446186, 0.0243810285
    279,  0.495830625, 0.0208988842
    280,  0.481763244, 0.0246267468
    281,  0.473372102, 0.0225256346
    282,  0.462799698,  0.020823434
    283,  0.450262457, 0.0225733276
    284,  0.443572193,  0.021363847
    285,  0.425845891, 0.0247878768
    286,   0.41725862, 0.0225173384
    287,  0.410549968, 0.0217297189
    288,  0.364611119, 0.00481090834
    289,  0.353726119, 0.0046850075
    290,   0.38068524, 0.0149868345
    291,  0.342905402, 0.00459368015
    292,   0.37028712, 0.0139340451
    293,  0.332357138, 0.00448042806
    294,  0.360365063, 0.0140696438
    295,  0.322290421, 0.00544378953
    296,  0.349703372, 0.0158824399
    297,  0.312525213, 0.00710942177
    298,  0.333618373, 0.0149522331
    299,  0.302239865, 0.00802700315
    300,  0.324885011, 0.0147900162
    301,  0.292189151, 0.0102249533
    302,  0.317028582, 0.0180051643
    303,  0.279572785, 0.00619640434
    304,  0.270686001, 0.00497372355
    305,  0.261205763, 0.00559409661
    306,  0.280017465, 0.0122969383
    307,  0.250878006, 0.00500940252
    308,  0.265985191, 0.0157420598
    309,  0.240135595, 0.00562119996
    310,  0.247539803, 0.0127027333
    311,  0.222775832, 0.00568243302
    312,  0.240689382, 0.0162611883
    313,   0.20991233, 0.00806817226
    314,  0.233634666, 0.0141500533
    315,  0.220557705, 0.0131384078
    316,  0.378035367, 0.0236452017
    317,  0.366860658, 0.0231264494
    318,  0.356937319, 0.0228513684
    319,  0.348261654, 0.0256295614
    320,   0.32447508,  0.022461351
    321,  0.307472289, 0.0226738378
    322,  0.297000945, 0.0238515679
    323,  0.283731669, 0.0183600038
    324,  0.274229884, 0.0226453226
    325,  0.259530008, 0.0268551987
    326,  0.251671076, 0.0248267576
    327,  0.230306476, 0.0244696904
    328,  0.220322356, 0.0258723479
    329,  0.210210204, 0.0232959576
    330,  0.644589663, 0.0311106164
    331,   0.63288641, 0.0310698077
    332,  0.621759951, 0.0333064348
    333,  0.610725462, 0.0337957256
    334,  0.599507868, 0.0349074453
    335,  0.587556124, 0.0319103599
    336,   0.58230263, 0.0324136056
    337,  0.571770728, 0.0322459564
    338,  0.560502648, 0.0318238698
    339,  0.549109638, 0.0328280181
    340,  0.537977934, 0.0328008123
    341,  0.526644707, 0.0333898626
    342,  0.515096247,  0.034315452
    343,  0.503528655, 0.0318388268
    344,   0.49397248, 0.0324030407
    345,  0.484319121, 0.0331936628
    346,  0.474660695, 0.0326840058
    347,  0.465613723, 0.0312848128
    348,  0.455980599, 0.0305727068
    349,  0.440371215, 0.0329608992
    350,   0.43080318, 0.0343804918
    351,  0.420161635, 0.0364551768
    352,  0.411486477,  0.032070104
    353,  0.401247531, 0.0342596807
    354,  0.389804661, 0.0324095823
    355,  0.378371865, 0.0350422375
    356,  0.366873592, 0.0326852724
    357,  0.356178224,  0.031025948
    358,  0.347629428, 0.0327047929
    359,  0.338175893, 0.0316029117
    360,  0.327698797, 0.0313170999
    361,  0.317151904, 0.0320699066
    362,  0.307059288,  0.031993974
    363,  0.297217458, 0.0307823457
    364,   0.28679052, 0.0285725519
    365,  0.273586303, 0.0315973721
    366,  0.262081951, 0.0310650039
    367,  0.254085243,  0.033930108
    368,  0.245902672, 0.0325673185
    369,  0.230884105, 0.0334901959
    370,   0.21911028, 0.0347223058
    371,  0.210589036, 0.0304065291
    372,  0.198118016, 0.0287638512
    373,  0.188643023,  0.030823607
    374,   0.17855984, 0.0323550664
    375,  0.168140814, 0.0334288254
    376,  0.156977057,  0.033134345
    377,  0.146387905, 0.0326450467
    378,  0.136367738, 0.0278597269
    379,  0.125503182, 0.0311479568
    380,    0.1140517, 0.0341032259
    381,   0.10385032, 0.0322277471
    382, 0.0938966051, 0.0294651985
    383, 0.0625125095, 0.0247347094
    384, 0.0729916915, 0.0220411774
    385, 0.0824789852, 0.0225796867
    386, 0.0937308222, 0.0222856086
    387,  0.103633299, 0.0216193106
    388,   0.11232011, 0.0240079891
    389,  0.127577975, 0.0222836398
    390,   0.13731505, 0.0190818142
    391,  0.146272629, 0.0235881116
    392,  0.156068727, 0.0226493832
    393,  0.168648437, 0.0215249788
    394,  0.177268088, 0.0232375748
    395, 0.00840624142, 0.00374179007
    396,    0.0201081, 0.00575450854
    397, 0.0303588491, 0.00591152953
    398, 0.0411682427, 0.00350154052
    399,  0.050355956, 0.00450341031
    400, 0.0636251792, 0.00576085178
    401, 0.0739170462, 0.00662606675
    402, 0.0808683708, 0.00666277902
    403, 0.0927467719, 0.00727231102
    404,  0.105215043, 0.00717363553
    405,  0.115718611, 0.00573453121
    406,  0.126454309, 0.00610960368
    407,  0.137466669,  0.005644958
    408,  0.147587061, 0.00531275105
    409,  0.157879382, 0.00720300479
    410,  0.172375605, 0.00589435687
    411,  0.181236193, 0.00619644811
    412,  0.187217325, 0.00494395429
    413,  0.380642354, 0.00574091729
    414,  0.419702381, 0.00332149793
    415,  0.430904359, 0.00277570542
    416,  0.441675931, 0.0031744896
    417,  0.452632695, 0.00373506849
    418,  0.463473439, 0.00404859288
    419,  0.474254221, 0.0042602676
    420,  0.485254407, 0.00505820569
    421,  0.497340769, 0.00759760477
    422,  0.509569407, 0.00548850326
    423,   0.52051127, 0.0052581802
    424,  0.531317055, 0.00555686513
    425,  0.175399736,  0.012446329
    426,   0.16906184, 0.0107551888
    427,  0.157236129, 0.0137430569
    428,  0.145788595, 0.0162527561
    429,  0.133167669, 0.0144281499
    430,  0.124409012, 0.0166175757
    431,   0.11506404, 0.0148048187
    432,  0.103780232, 0.0118551385
    433, 0.0943977088, 0.0161871389
    434, 0.0823359191, 0.0145377247
    435, 0.0752084628, 0.0132576916
    436, 0.0653419569, 0.0156959388
    437, 0.0562053323, 0.0139475167
    438, 0.0411815383, 0.0142248087
    439, 0.0305901133, 0.0150517877
    440,  0.499575704, 0.0411664136
    441,  0.488829762,  0.041771885
    442,   0.47800833, 0.0421124473
    443,  0.467137218, 0.0419353694
    444,  0.455099016, 0.0398251414
    445,  0.442940742, 0.0426234901
    446,  0.431993544, 0.0437234268
    447,  0.421113402,  0.044554498
    448,  0.410742611, 0.0403949469
    449,   0.40151906, 0.0381691344
    450,  0.391096383, 0.0391759686
    451,  0.377873957, 0.0396021642
    452,  0.369636893, 0.0419527143
    453,  0.360069335, 0.0413766876
    454,  0.348930389, 0.0414562747
    455,  0.338281661, 0.0416216068
    456,  0.327737391, 0.0415927805
    457,  0.317032725,  0.041591309
    458,  0.306246221, 0.0413379744
    459,  0.295371771, 0.0406401604
    460,  0.278913051, 0.0390171967
    461,  0.267173111, 0.0443234183
    462,  0.256202757, 0.0439230129
    463,  0.244542897, 0.0412011147
    464,  0.232681602, 0.0430857614
    465,  0.222155169, 0.0433987714
    466,   0.21122703, 0.0421503708
    467,  0.199950114, 0.0414533727
    468,  0.189099997, 0.0410240479
    469, 0.0207182504, -0.00511226477
    470, 0.0301322136, -0.00525363488
    471, 0.0404144712, -0.00623959256
    472, 0.0506433696, -0.00310036261
    473, 0.0604499578, -0.00341530913
    474, 0.0704442561, -0.00333191501
    475,  0.080811426, -0.00303962873
    476, 0.0925599486, -0.00249828817
    477,  0.104092367, -0.00309282402
    478,  0.115092784, -0.00364261516
    479,  0.125940844, -0.00370874419
    480,   0.13683252, -0.00374577893
    481,  0.147649184, -0.00364274113
    482,  0.158270925, -0.00330114178
    483,  0.168689132, -0.00316666486
    484,  0.179085359, -0.00212704204
    485,   0.19021666, -0.00181179494
    486,  0.199722975, -0.00155869999
    487,  0.208708048, -0.00696920883
    488,  0.219508395, -0.00603161426
    489,  0.231091172, -0.00463175075
    490,  0.242774874, -0.00482429983
    491,  0.253756791, -0.0047707269
    492,  0.264446527, -0.00454229442
    493,  0.275143325, -0.00412635179
    494,  0.285829961, -0.0031078211
    495,  0.296653956, -0.00232834253
    496,  0.307194024, -0.00256885751
    497,  0.984461248, 0.00200079149
    498,  0.973391891, 0.00387125602
    499,  0.962341011, 0.00568615319
    500,  0.951310694, 0.00746379653
    501,  0.940300465, 0.00919650029
    502,  0.929309785, 0.0108766919
    503,   0.91833818,  0.012496911
    504,  0.907385051, 0.0140498132
    505,  0.896449983, 0.0155281592
    506,  0.885532498, 0.0169248246
    507,  0.874632061, 0.0182327889
    508,  0.863732636, 0.0194481779
    509,   0.85280019, 0.0205764212
    510,  0.841816962, 0.0216288976
    511,  0.830783725, 0.0226168428
    512,  0.819701433, 0.0235517602
    513,  0.808570862, 0.0244454294
    514,  0.797392964, 0.0253099166
    515,  0.786175311, 0.0261565242
    516,  0.774936497, 0.0269921292
    517,  0.763688028, 0.0278196987
    518,  0.752429962, 0.0286418386
    519,  0.741162658, 0.0294611659
    520,  0.729892254, 0.0302798711
    521,  0.718627989, 0.0310999285
    522,  0.707371473, 0.0319237746
    523,  0.696114302, 0.0327530839
    524,  0.684849024, 0.0335870311
    525,  0.673578203, 0.0344229601
    526,  0.662310362, 0.0352577418
    527,  0.651050866, 0.0360884815
    528,  0.639799714, 0.0369126983
    529,  0.628556728, 0.0377279371
    530,  0.617321789,  0.038531743
    531,  0.606094778, 0.0393216796
    532,  0.594875574, 0.0400953144
    533,   0.58366406,  0.040850237
    534,  0.572460115, 0.0415840372
    535,  0.561263561, 0.0422943272
    536,  0.550074339, 0.0429787189
    537,  0.538892329, 0.0436348431
    538,  0.527717412, 0.0442603379
    539,  0.516549408, 0.0448528528
    540,   0.50538826, 0.0454100519
    541,    0.4942334, 0.0459296294
    542,  0.483065665, 0.0464121811
    543,  0.471855462, 0.0468661599
    544,   0.46059534, 0.0473053679
    545,  0.449326843, 0.0477428138
    546,  0.438098907, 0.0481912829
    547,  0.426908791, 0.0486646295
    548,  0.415687084, 0.0491669104
    549,  0.404447973, 0.0496766604
    550,  0.393289566, 0.0501587912
    551,  0.382238299, 0.0505824275
    552,  0.371290982, 0.0509197228
    553,  0.360405385, 0.0511487834
    554,  0.349510461, 0.0512644947
    555,  0.338575661, 0.0512751453
    556,  0.327600449, 0.0511909015
    557,  0.316584438, 0.0510221682
    558,   0.30552724, 0.0507795736
    559,  0.294428438, 0.0504739992
    560,  0.283287704, 0.0501165688
    561,  0.272104591, 0.0497186743
    562,  0.260878772, 0.0492919609
    563,   0.24962832,  0.048847504
    564,  0.238396868, 0.0483879596
    565,  0.227210253, 0.0479048863
    566,  0.216069296, 0.0473865271
    567,  0.204974711, 0.0468213968
    568,  0.193927139, 0.0461982712
    569,  0.182927221, 0.0455061793
    570,  0.171975598, 0.0447343998
    571,   0.16107282, 0.0438724421
    572,  0.150219381, 0.0429100618
    573,  0.139415741, 0.0418372117
    574,  0.128662214, 0.0406440757
    575,   0.11795909, 0.0393210091
    576,  0.107306473, 0.0378585644
    577, 0.0967313424, 0.0362498127
    578, 0.0863100663, 0.0344834104
    579, 0.0760987327, 0.0325322226
    580, 0.0661092177, 0.0303619504
    581, 0.0563508384, 0.0279415697
    582, 0.0468305871, 0.0252428502
    583, 0.0375528075, 0.0222396236
    584, 0.0285189431, 0.0189069156
    585, 0.0198744535, 0.0152834412
    586,  0.025188975, -0.00920603797
    587, 0.0350186229,  -0.01031317
    588, 0.0453950353, -0.0112431413
    589, 0.0558424704, -0.0119808698
    590, 0.0663641021, -0.0125438077
    591, 0.0769627765, -0.0129500693
    592, 0.0876410827, -0.0132185239
    593, 0.0984014273, -0.013368885
    594,  0.109246075, -0.013421786
    595,  0.120171249, -0.0133985821
    596,  0.131144136, -0.013316215
    597,  0.142133117, -0.0131825302
    598,  0.153134406, -0.0130007807
    599,  0.164147884, -0.0127740847
    600,  0.175173402, -0.0125055779
    601,  0.186210826, -0.0121984193
    602,  0.197260037, -0.0118557848
    603,  0.208320886, -0.0114808753
    604,  0.219393238, -0.0110769104
    605,  0.230476946, -0.0106471293
    606,  0.241571903, -0.0101947952
    607,  0.252677947, -0.00972319115
    608,  0.263794959, -0.0092356205
    609,  0.274922788, -0.00873540994
    610,  0.286061019, -0.0082258964
    611,  0.297208697, -0.00771025941
    612,  0.308364093, -0.00719146663
    613,  0.319518626, -0.00667273393
    614,   0.33066383, -0.00615727203
    615,  0.341798842, -0.00564792659
    616,  0.352923989, -0.00514747063
    617,    0.3640396, -0.00465866271
    618,  0.375146031, -0.00418424653
    619,  0.386243582, -0.00372695038
    620,  0.397333264, -0.00328944414
    621,  0.408423483, -0.00287299324
    622,  0.419524014, -0.00247609662
    623,  0.430636823, -0.0020957829
    624,  0.441761702, -0.00172901712
    625,  0.452898443, -0.00137274514
    626,  0.464046776, -0.00102389464
    627,  0.475206494, -0.000679374964
    628,  0.486371756, -0.000336249097
    629,  0.497531146, 8.25627103e-06
    630,  0.508684456, 0.000356748234
    631,  0.519843161, 0.000709509186
    632,  0.531005859, 0.00106364291
    633,  0.542160511, 0.0014153322
    634,  0.553302765, 0.00176101516
    635,    0.5644328, 0.00209729746
    636,  0.575550795, 0.00242080702
    637,  0.586656928, 0.00272819446
    638,  0.597751439, 0.00301613193
    639,  0.608834505, 0.00328131323
    640,  0.619906306, 0.00352045428
    641,  0.630973458, 0.00373091013
    642,  0.642053187, 0.00391380303
    643,  0.653156221, 0.00407437654
    644,  0.664282799, 0.00421889778
    645,  0.675432801, 0.00435370905
    646,  0.686595738, 0.00448510842
    647,  0.697748184, 0.00461928453
    648,  0.708877385, 0.00476251496
    649,  0.719985664, 0.00492109079
    650,  0.731094837, 0.00509832194
    651,  0.742228627, 0.00529067544
    652,  0.753384769, 0.00549019594
    653,  0.764535606, 0.00568817835
    654,  0.775658548, 0.0058760317
    655,  0.786752582, 0.0060456628
    656,  0.797817945, 0.00618913397
    657,  0.808855116, 0.00629863003
    658,    0.8198663, 0.00636662263
    659,  0.830856144, 0.00638666889
    660,  0.841827095, 0.0063534677
    661,  0.852778733, 0.00626202254
    662,  0.863710642, 0.00610739039
    663,  0.874622941, 0.00588467577
    664,   0.88552916, 0.00559024652
    665,  0.896448076, 0.00522503676
    666,   0.90738529, 0.00479385071
    667,  0.918340921, 0.00430207234
    668,  0.929314971, 0.00375514687
    669,  0.940307438,  0.003158584
    670,  0.951318383, 0.00251795561
    671,  0.962347806, 0.00183889898
    672,  0.973395705, 0.00112711627
    673,  0.984462142, 0.000380768994
    674, 0.00597084081, -0.000637281744
    675, 0.0988229737, 0.0310180597
    676,  0.302141607, -0.00244992413
    677,  0.310896426, -0.00243969681
    678, 0.0887283161, 0.0271783285
    679, 0.0220670402, 0.0114591829
    680, 0.0176940653, 0.00943852402
    681, 0.0253745839, -0.00529135438
    682, 0.0262881238, 0.0133213419
    683, 0.0393588245, 0.0182408728
    684, 0.0349385813, 0.0166854523
    685,  0.639099598, 0.0314397737
    686, 0.0438771732, 0.0197446346
    687, 0.0484613217, 0.0211305693
    688, 0.0531009324, 0.0224170983
    689,   0.21304211, 0.0194354169
    690, 0.0672856495, 0.0257787462
    691,  0.385159075, 0.00609698193
    692,   0.40725708, 0.00548733398
    693,  0.380970716,  0.010465459
    694,  0.380079389, 0.0193319786
    695,  0.407826424, 0.0263175964
    696,  0.401406854, 0.0296518523
    697,    0.3927356, 0.00111938908
    698,  0.397429913, 0.00121930125
    699,  0.383078426, 0.0259903409
    700,  0.393068314, 0.0303075146
    701,  0.201969534, 0.0021969513
    702,  0.201711997, 0.0279789641
    703,  0.182686538, 0.0123414733
    704,   0.18224746, 0.0192388222
    705,   0.18735747, 0.0265521873
    706,  0.193489328, 0.0293120593
    707,  0.192248583, 0.00182004564
    708,   0.21307379, 0.0120987277
    709, 0.0721361265,  0.026686132
    710, 0.0771329552, 0.0273432359
    711, 0.0352891684, -0.00572328083
    712,  0.045486331, -0.00681625633
    713, 0.0824390277, 0.0276246816
    714, 0.0557340309, -0.00763982348
    715, 0.0608325414, -0.00786999706
    716,  0.065970026, -0.00799522642
    717, 0.0763475075, -0.00806340482
    718, 0.0711209998, -0.00807380397
    719, 0.0871909931, -0.00782551337
    720, 0.0816737264, -0.00797847845
    721,  0.119199157, 0.0348931886
    722,  0.130576447,  0.031811703
    723,  0.092767328, -0.00784731284
    724, 0.0983596668, -0.00800389517
    725,  0.140295476, 0.0372052528
    726,  0.135711581, 0.0322964303
    727,   0.10892465, 0.0332328752
    728,   0.15103738, 0.0379206613
    729,   0.14568384, 0.0375518464
    730,  0.365439385, 0.0463775843
    731,  0.360140055, 0.0462923199
    732,  0.103876464, -0.00820557494
    733,  0.109371394, -0.00838492904
    734,  0.370623499, 0.0461775884
    735,  0.376008928, 0.0448236205
    736,  0.503915966, 0.00607176265
    737,  0.881075799, 0.00847304892
    738,  0.875936985, 0.00939617865
    739,  0.888461769, 0.0113995103
    740,  0.893684924, 0.0107248323
    741,  0.354729831, 0.0462414026
    742,    0.3492679, 0.0463390872
    743,  0.156293094, 0.0383581594
    744,  0.161672905, 0.0387874916
    745,  0.870683193, 0.00993768964
    746,  0.865333259, 0.0103299245
    747,  0.899123132, 0.0101722945
    748,  0.904561937, 0.00961694214
    749,  0.854463279, 0.0109851435
    750,  0.859924495, 0.0106563959
    751,  0.343834817, 0.0464393832
    752,  0.338442892, 0.0464823209
    753,  0.909942031, 0.00906775333
    754,  0.915141821, 0.00851352513
    755,  0.167139679, 0.0391685776
    756,  0.172476113, 0.0400272049
    757,  0.842486143, 0.0122022601
    758,  0.114853777, -0.00849913061
    759,  0.120314017, -0.00854175817
    760,  0.918785155, 0.00777881127
    761,  0.830635309, 0.0117789684
    762,  0.131229565, -0.00852068327
    763,  0.125782192, -0.00854159147
    764,  0.333068192, 0.0464801192
    765,  0.327677786, 0.0464489236
    766,  0.136710927, -0.00849207491
    767,  0.142171994, -0.00844335277
    768,  0.818977535, 0.0120125078
    769,  0.177974135, 0.0406011567
    770,   0.38177368, 0.0454721712
    771,  0.387155473, 0.0454349592
    772,   0.14763537, -0.00837251637
    773,  0.153064877, -0.00827370398
    774,  0.845669091, 0.0170590486
    775,  0.158446565, -0.00817389879
    776,  0.163797185, -0.008059429
    777,  0.807901144, 0.0109646013
    778,  0.169184521, -0.00790396146
    779,  0.322266161, 0.0464026965
    780,  0.316817105, 0.0463282689
    781,  0.180193141, -0.00704494817
    782,  0.796994686, 0.0119828349
    783,  0.836092472, 0.0186678283
    784,  0.192120135, -0.0073650917
    785,  0.619584143, 0.00880977605
    786,  0.625324667, 0.00927258097
    787,  0.631172895, 0.00914135948
    788,  0.636802971, 0.00915884692
    789,    0.2033007, -0.00707861688
    790,   0.61406666, 0.00825580955
    791,  0.608695686, 0.00792322587
    792,  0.786013961, 0.0110773901
    793,  0.311356485, 0.0462206155
    794,  0.305866122, 0.0460597314
    795,  0.214042038, -0.00654445635
    796,  0.603348792, 0.00800290797
    797,  0.597829461, 0.00828336831
    798,  0.647806585, 0.00909532327
    799,  0.642319679, 0.00917522144
    800,  0.225144386, -0.00525246467
    801,  0.831300974, 0.0171892103
    802,  0.720540404, 0.0103770895
    803,  0.726213872, 0.0102502387
    804,  0.403149098, 0.00234946515
    805,  0.380927086, 0.00111046701
    806,  0.592146397, 0.00828734133
    807,  0.586534917, 0.00748280017
    808,  0.774510443, 0.0110788001
    809,  0.236977264, -0.00470357342
    810,  0.369801283, 0.000323212851
    811,   0.37532568, 0.000636443496
    812,  0.413533479, 0.00215987209
    813,  0.397959024, 0.0442252383
    814,  0.658756733, 0.00895768404
    815,  0.653268516, 0.00897008926
    816,  0.575738788, 0.0073933322
    817,  0.581186652, 0.00712599978
    818,  0.708905101,  0.010592252
    819,  0.714773238, 0.0105377929
    820,  0.731842995, 0.0101422071
    821,  0.737438619, 0.0100423992
    822,  0.358797759, -0.000111265479
    823,  0.364307284, 7.19890086e-05
    824,  0.300363004, 0.0458473228
    825,  0.294847697, 0.0455788597
    826,  0.564433217, 0.00760134449
    827,  0.570136189, 0.00760768633
    828,  0.347778201, -0.000434857677
    829,  0.353278399, -0.00027056862
    830,  0.669700265, 0.00916853454
    831,  0.664217114, 0.00903808232
    832,   0.76891458, 0.0102743879
    833,  0.763667405, 0.00938173197
    834,  0.553082407, 0.00694261398
    835,   0.55879575, 0.00729678012
    836,  0.342317224, -0.000604675151
    837,  0.336882323, -0.000757938426
    838,  0.697358906, 0.00975871086
    839,  0.703051805, 0.0101093799
    840,  0.817868531, 0.0178346615
    841,  0.743005157, 0.00990113616
    842,  0.748483658, 0.00963877793
    843,  0.331447244, -0.000826086849
    844,  0.326079518, -0.000720965501
    845,  0.542053044, 0.0062104091
    846,  0.547512889, 0.00661343057
    847,  0.515042067, 0.00528835179
    848,  0.745924473, 0.0240643211
    849,  0.468852252, 0.00413522823
    850,  0.320897967, -0.000335413672
    851,  0.316352993, 0.000443904544
    852,  0.680727839, 0.00937832426
    853,  0.675197065, 0.00927323662
    854,  0.691797435, 0.00957168266
    855,  0.686253786, 0.00945585407
    856,  0.753786504, 0.00915186945
    857,  0.758757412, 0.0087881824
    858,  0.536680877, 0.00583675085
    859,  0.283816516, 0.0449311845
    860,  0.490909636, 0.00597434677
    861,  0.479741156, 0.00454282295
    862,  0.510492325, 0.0402059145
    863,   0.50498724, 0.0407597721
    864,  0.227366984,  0.043394085
    865,  0.521567881,  0.039182052
    866,  0.515960515, 0.0396478698
    867,  0.527201533,   0.03881488
    868,  0.532826483, 0.0385022201
    869,  0.813884795, 0.0209700074
    870,  0.809734225, 0.0203305557
    871,  0.538395882, 0.0382632278
    872,  0.543969035, 0.0380715504
    873,  0.549577653, 0.0378333554
    874,  0.555240512, 0.0374981649
    875,  0.437449038, 0.0432752036
    876,  0.272699565, 0.0443605147
    877,  0.560845256, 0.0371728018
    878,  0.566399932, 0.0370224342
    879,  0.238253355, 0.0424360931
    880,  0.185241997, 0.00856486708
    881,  0.571990371, 0.0369333141
    882,  0.577503026, 0.0368332043
    883,  0.410123706, 0.0446580015
    884,   0.58846122, 0.0361604989
    885,  0.795289695, 0.0196202733
    886,  0.472584158,  0.042126853
    887,  0.261706918, 0.0442424454
    888,  0.616314113, 0.0335602574
    889,  0.448605597, 0.0416028909
    890,  0.250667751, 0.0431042649
    891,  0.785733044, 0.0211048312
    892,  0.790873587, 0.0206602477
    893,  0.627178133, 0.0326937325
    894,  0.774465442,  0.022131836
    895,  0.780153096, 0.0214780625
    896,  0.769240022, 0.0232101753
    897,   0.70696044, 0.0277177393
    898,  0.712296247, 0.0269951001
    899,  0.656081498, 0.0290749539
    900,  0.650071323, 0.0306310728
    901,  0.723286688, 0.0257553626
    902,  0.696039557, 0.0284793451
    903,  0.701507151, 0.0281790718
    904,  0.461525798, 0.0413354002
    905,  0.668170393, 0.0295152385
    906,  0.662423074, 0.0295112729
    907,  0.690527439, 0.0287178848
    908,  0.684967577, 0.0289465841
    909,  0.679389954,   0.02917183
    910,  0.673784137, 0.0293719098
    911, 0.0577924252, 0.0236102287
    912,  0.194873288, 0.0369975306
    913, 0.0106655397, -0.000660434191
    914,   0.73454684, 0.0249038674
    915,  0.436248571, 0.00295606419
    916, 0.0127840368, 0.00660186401
    917,  0.425578713, 0.00264929258
    918,  0.205682293, 0.0414442047
    919,  0.494202852, 0.0415142849
    920,  0.248342514, -0.00485734455
    921,  0.216731668, 0.0429418012
    922,  0.259085506, -0.00468236255
    923,  0.207038075, 0.0272627641
    924,  0.856364727, 0.0155680049
    925,  0.269823521, -0.00438981783
    926,  0.757886171, 0.0230590217
    927,  0.280408651, -0.00372474035
    928,  0.458067685, 0.00389455096
    929,    0.5259583, 0.00533996616
    930,  0.605106294, 0.0342832357
    931,  0.291148871, -0.00237219804
    932,  0.426552296, 0.0441362783
    933,  0.447175801, 0.00343558216
    934,  0.483435124, 0.0420106128
    935,  0.203747675,  0.030775588
    936, 0.0283956192, 0.00956511684
    937,  0.375431091, 0.00995241012
    938, 0.0592672974, 0.0192443207
    939,  0.452242941, 0.00901443604
    940,  0.426006764, 0.0394852348
    941,  0.867208838, 0.0146099152
    942,  0.603950858,  0.029165512
    943,  0.457609475, 0.00911997352
    944,  0.178755105, 0.00943204574
    945,   0.30081895, 0.0410418883
    946,  0.416264415, 0.0196931567
    947, 0.0248731114, -0.00143183058
    948,  0.406743079, 0.0398787111
    949,  0.375362664, 0.00533322897
    950,  0.153022826, -0.0034807215
    951,  0.222524598, 0.0393241383
    952,   0.46808672, 0.00929169264
    953,  0.311642259, 0.0415114611
    954,   0.61558181, 0.0285456516
    955,  0.436578304, 0.0384915918
    956,   0.29001072,  0.040125832
    957,   0.58657372, 0.0278396141
    958,  0.743987083, 0.0146225076
    959,  0.120532185, -0.00369880744
    960,  0.216932565, 0.0228226017
    961,  0.238183811, 0.000603045919
    962,  0.625353754, 0.0282412972
    963,  0.054690294, 0.0181957502
    964,  0.478547215, 0.00944124907
    965,  0.284570396, 0.0395761169
    966,    0.4108603, 0.0113577954
    967,  0.446787566, 0.0362830609
    968,  0.142262772, -0.00374357426
    969,  0.744994044,  0.019312771
    970,  0.050134629, 0.0170468073
    971,  0.436281502, 0.00797767006
    972,  0.501080692, 0.0129556684
    973, 0.0970995128, 0.0244851336
    974,  0.690688431, 0.0241077133
    975,  0.236944988, 0.0370257869
    976,  0.515994072, 0.00998233166
    977, 0.0355788395, -0.00127153925
    978,  0.488795251, 0.0114504993
    979, 0.0456477143, -0.0025190115
    980,  0.205612898, 0.00462423824
    981,   0.47867322,  0.037584424
    982,  0.634739637, 0.0268951226
    983,  0.224683702, 9.20579841e-05
    984,  0.151840389, 0.0326536223
    985,  0.359203249, 0.00469864719
    986,  0.244099826, 0.000203230593
    987,  0.459114015, 0.0342126787
    988,  0.412866384, 0.0283052307
    989,  0.173869878, -0.00284602423
    990,  0.521243513, 0.00979836006
    991,  0.468479246,  0.036940068
    992,  0.750989914, 0.0187766477
    993,  0.270282954, 0.00032900204
    994,  0.188281953, 0.00107151491
    995,  0.307109833, 0.00249814009
    996,  0.284988672, 0.00196208479
    997,  0.182802752, 0.00309373997
    998,  0.110625379, 0.0286081694
    999,  0.260067016, 0.000307552778
   1000,  0.217605069, 0.0387226902
   1001, 0.0155860903, 0.00308126397
   1002,  0.473541439, 0.0373999327
   1003,  0.296464503, 0.00339598861
   1004,  0.200083479, 0.0366559923
   1005,  0.711178064, 0.0221829172
   1006,  0.131397843, -0.00372883771
   1007,  0.212442994, 0.0373740196
   1008,   0.25493136, 0.000258384884
   1009,  0.249642476, 0.0001373509
   1010,   0.66945684, 0.0141077908
   1011,  0.189914629, 0.0357104465
   1012,  0.701306939, 0.0239283051
   1013,  0.488996029, 0.0373393223
   1014,  0.105822057, 0.0275277048
   1015,  0.396606684, 0.0384608321
   1016,  0.422441363, 0.00719359377
   1017,  0.124383904, 0.0356143862
   1018,  0.772974551, 0.0166795421
   1019,  0.374747813, 0.0182031691
   1020,  0.758025348, 0.0175886713
   1021,  0.638714314, 0.0262023564
   1022,  0.162139788, 0.0338643827
   1023,  0.510837972, 0.0103505338
   1024,  0.173364446,  0.035758581
   1025,  0.848836541, 0.0113501148
   1026,  0.836049378, 0.0113126943
   1027,  0.322398692, 0.0415948927
   1028,  0.722245812, 0.0207086969
   1029,  0.824936271, 0.0120762633
   1030,   0.81328088,  0.011371783
   1031,  0.733590841, 0.0199933592
   1032,  0.248439148, 0.0362538993
   1033,  0.186398506, -0.0059848153
   1034,  0.505798161, 0.0111352196
   1035,  0.257298291, 0.0390703343
   1036,  0.732681811, 0.0150997089
   1037,   0.40825212, 0.00151043455
   1038,  0.387349993, 0.00228392752
   1039,  0.585846782, 0.0116615361
   1040,  0.337576836, 0.00448394427
   1041,  0.509689927, 0.0353159718
   1042,  0.327237308, 0.00476619275
   1043,  0.101231612, 0.0261926856
   1044,  0.541728139, 0.0111139864
   1045,  0.520834863, 0.0338319205
   1046,  0.532339752, 0.0329709649
   1047,  0.213965386, -0.00168860832
   1048,   0.28935042, 0.0452572182
   1049,  0.543540418, 0.0328476094
   1050,  0.278251678, 0.0445669219
   1051,  0.204150066, -0.00285680406
   1052, 0.0555282086, -0.0033898335
   1053,  0.403983504, 0.0434141532
   1054,  0.120478652, 0.0303832386
   1055,  0.593978941, 0.0355699584
   1056,  0.193732828, -0.00362035981
   1057,  0.790497124, 0.0157837905
   1058,  0.415618002, 0.0448003188
   1059,  0.717736721, 0.0263036974
   1060,  0.668630004, 0.0242848992
   1061,  0.526490569, 0.00986682158
   1062,  0.494122475, 0.0370275415
   1063,  0.658810914, 0.0137639437
   1064,  0.648912609,  0.025614839
   1065,  0.417009652, 0.0079746088
   1066,  0.348277003, 0.00469556125
   1067,  0.806813419, 0.0155332899
   1068,  0.333013475,  0.041601114
   1069,   0.21381937, 0.0263254177
   1070, 0.0368947238, 0.0126672927
   1071,  0.109632507, -0.00342492922
   1072, 0.0653986782, -0.003415816
   1073,   0.79903096, 0.0166362617
   1074,  0.637128532, 0.0144774988
   1075,  0.648251951, 0.0143425297
   1076, 0.0871994719, 0.0217432212
   1077,  0.721283734, 0.0155898081
   1078,  0.625188768, 0.0153025789
   1079,  0.015547256, -0.00345211173
   1080,  0.679674983, 0.0242749657
   1081,  0.131440312, 0.0273720361
   1082, 0.0984382182, -0.00273877638
   1083, 0.0755044073, -0.0032689299
   1084,  0.343537778, 0.0416258462
   1085, 0.0865281671, -0.00248913537
   1086,  0.462822884, 0.00934931543
   1087,  0.609794974,  0.028455548
   1088,  0.446910858, 0.00840691663
   1089,  0.431341678, 0.0390335582
   1090,  0.354487568,  0.041182518
   1091,  0.365198851, 0.0417731814
   1092,  0.372660816, 0.0408206545
   1093,  0.385529369, 0.0374876037
   1094,  0.273252934, 0.0385397635
   1095,  0.194434911, 0.0333982147
   1096,  0.216631085, 0.0160728693
   1097,  0.702414215, 0.0150397271
   1098,    0.5764606, 0.0123439012
   1099,  0.068431735, 0.0212283414
   1100,  0.531540573, 0.0102151847
   1101,  0.554781139, 0.0324115306
   1102,  0.566129744, 0.0320141986
   1103,  0.379912347, 0.0304411948
   1104,  0.406529754, 0.0307392459
   1105,  0.394628704, 0.0346147828
   1106,   0.57190311, 0.0275843255
   1107,  0.140963793, 0.0325694494
   1108,  0.182457656, 0.0279701408
   1109,  0.499205858, 0.0366537273
   1110,  0.183514178, 0.0408089682
   1111,  0.564439058, 0.0131824091
   1112,  0.691368103, 0.0144911027
   1113, 0.0776728913, 0.0225907192
   1114, 0.0506011508, -0.00732492795
   1115,  0.764487147, 0.0188728813
   1116,  0.552798867, 0.0119447233
   1117,  0.608620882, 0.0122688487
   1118,  0.317458063, 0.0064442493
   1119,  0.680388153, 0.0143466452
   1120,  0.163498744, -0.00322306715
   1121,  0.658173501, 0.0233662818
   1122,  0.598365068, 0.0135477437
   1123,  0.649258792, 0.0200207308
   1124,   0.48910296, 0.0329087824
   1125,  0.184020683, -0.00102385029
   1126,  0.521965325, 0.0142823132
   1127,  0.183799163, 0.0362395234
   1128,  0.417199463, 0.0298529882
   1129,   0.47944811, 0.0331268907
   1130,  0.727922201, 0.0203290097
   1131,  0.600191951, 0.0189111568
   1132, 0.0608196594, 0.0148213934
   1133,  0.654023707, 0.0184185524
   1134,  0.208197474, 0.0015768219
   1135, 0.0517726354, 0.0130034527
   1136,  0.318407595, 0.0124298679
   1137,  0.175786391, 0.00685822684
   1138,  0.425058275, 0.0344078653
   1139,   0.44636476, 0.0130161112
   1140,  0.609019339, 0.0224716719
   1141,  0.152498066, 0.0269094761
   1142,  0.386741549, 0.0286681876
   1143,  0.415609837, 0.0406063646
   1144,   0.21477218, 0.0328743719
   1145,  0.612061799, 0.0176198483
   1146,  0.375241488, 0.0142150419
   1147,  0.543400288, 0.0276477076
   1148,  0.592899144, 0.0310788751
   1149,  0.503625333, 0.0170779079
   1150,   0.49876821,  0.031983573
   1151,  0.120790057, 0.00112552103
   1152,  0.470005542, 0.0320456438
   1153,  0.674539447, 0.0192723013
   1154, 0.0863343403, 0.0174463596
   1155,  0.622139394, 0.0201760679
   1156,  0.245474502, 0.00493099447
   1157,  0.415702373, 0.0119788675
   1158,  0.583107471, 0.0146991238
   1159,   0.66909194, 0.0191354025
   1160,  0.162229687, 0.0298756119
   1161,  0.018716706, 1.18294756e-05
   1162, 0.0456605814, 0.0157295167
   1163,  0.531581819, 0.0151821915
   1164,  0.328311563, 0.00987594482
   1165, 0.0298619065, -0.000359345926
   1166, 0.0999877974, 0.0200161245
   1167,   0.34889552, 0.0100454977
   1168,  0.372622579, 0.0222113226
   1169,  0.311892629, 0.0368056558
   1170,   0.51212275, 0.0150670651
   1171,  0.414879352, 0.0249819625
   1172,  0.685524642, 0.0193386264
   1173,   0.45716086, 0.0140899112
   1174,  0.636884272, 0.0203660764
   1175,  0.338178486, 0.0097845858
   1176,  0.739257693, 0.0196774639
   1177, 0.0406783484, -0.00167774688
   1178,    0.1316517, 0.00105731946
   1179,  0.158133224, 0.00174632331
   1180,   0.11543633, 0.00112945517
   1181,  0.531751335, 0.0272330288
   1182,   0.36491707, 0.00944989268
   1183, 0.0823294297, 0.0182330683
   1184,  0.142415553, 0.000897607475
   1185,  0.327748805,  0.036575716
   1186,  0.104475357, 0.0019985179
   1187,  0.696335077, 0.0193715543
   1188,  0.578295231, 0.0174758472
   1189,  0.338142395, 0.0367020071
   1190,    0.6587798,  0.018569801
   1191,  0.548707962, 0.0281345658
   1192, 0.0924471766, 0.00259813922
   1193,  0.296103954, 0.0356000885
   1194,   0.71536839, 0.0159499161
   1195, 0.0598209091, 0.000956892909
   1196,  0.146596611, 0.0279230457
   1197,  0.147672147, 0.000966474006
   1198,  0.079609178, 0.0013838358
   1199,  0.348335534, 0.0369001031
   1200,  0.359704614, 0.0094279917
   1201,  0.115508944, 0.0295489803
   1202,  0.301402152,  0.036274299
   1203,   0.17284514, 0.0298425127
   1204,  0.705569744, 0.0199899916
   1205,  0.473260075, 0.00916591287
   1206,  0.554020762, 0.0276867282
   1207, 0.0781201348, 0.0182286762
   1208,  0.152947947, 0.00135542068
   1209, 0.0695911944, 0.00138684688
   1210,  0.360359073, 0.0365984663
   1211,  0.566294789, 0.0271325577
   1212,  0.168263793, 0.00159259082
   1213,  0.620776057, 0.0287217777
   1214,  0.463584602,  0.036049176
   1215,  0.231562644, 0.00173259748
   1216,  0.493562877, 0.0134314643
   1217,  0.441736609, 0.0376485251
   1218,  0.137094036, 0.000954275311
   1219,  0.227074891, 0.0387921222
   1220,  0.126538441,  0.026687026
   1221,  0.483701766, 0.0101980772
   1222,  0.136863694,  0.023466222
   1223,  0.206557989,  0.035408739
   1224,  0.265112996, 0.000240734109
   1225,  0.690966904, 0.0193280932
   1226,  0.275225341, 0.000644152169
   1227,  0.301978052, 0.00286995573
   1228,  0.290233403, 0.00437329616
   1229,  0.219188869, -0.00126501347
   1230,  0.365672469, 0.0372488126
   1231,  0.643798769, 0.0257336348
   1232,  0.174622357, -0.00759772956
   1233,  0.451617897,  0.034108717
   1234,  0.382411569, 0.0364577994
   1235,  0.802658558, 0.0110375993
   1236,  0.197395816, -0.00642672367
   1237,  0.680013061, 0.0193117317
   1238,  0.791403651, 0.0110886768
   1239,  0.306650341, 0.0366440304
   1240,  0.285629213, 0.0340965055
   1241,  0.780379951, 0.0112173194
   1242,  0.392023861, 0.0354195572
   1243,  0.392477751, 0.0447995849
   1244,  0.419256955, 0.0125042498
   1245,  0.032636188, 0.0111551071
   1246,  0.178216189, 0.00292218593
   1247,  0.582964301, 0.0366058983
   1248,  0.354352832, 0.00964754354
   1249,  0.508373976,  0.030665841
   1250,   0.52012825, 0.0287269372
   1251,  0.564215541, 0.0193577707
   1252, 0.0430719815, 0.0102591058
   1253, 0.0506476648, 0.000758315437
   1254,  0.370135278, 0.00956030749
   1255,  0.374218464, 0.0279242303
   1256,  0.126197234, 0.00114764774
   1257,  0.629166782, 0.0263562929
   1258,  0.181723058, 0.0247565266
   1259, 0.0638974383, 0.0202779323
   1260,  0.441518128, 0.00804855395
   1261,   0.55267328, 0.0163767729
   1262,  0.107780486, 0.0229440946
   1263,  0.195890039, 0.00055926916
   1264,  0.608636618, 0.0158320088
   1265,  0.594544649, 0.0201615132
   1266,  0.220248982, 0.0198527966
   1267,  0.256069541, 0.00547148008
   1268,  0.768890858, 0.0198184326
   1269,  0.222478196, 0.0360266976
   1270,  0.620608032, 0.0244036969
   1271,  0.467624933, 0.0145923011
   1272,  0.311953515, 0.00185157591
   1273,  0.235413626, 0.00709991343
   1274,  0.435643107, 0.0339270234
   1275,  0.217441186, 0.0290844124
   1276,  0.504343212,  0.036196202
   1277,   0.13219659, 0.0230115522
   1278,  0.177777663, 0.0283039473
   1279,  0.436424345, 0.0131154619
   1280, 0.0697366223, 0.0166423153
   1281,  0.110652685, 0.00586163951
   1282,  0.355335653, 0.0143656265
   1283,  0.141550675, 0.0236874763
   1284, 0.0345312282, 0.00717540924
   1285,  0.384032398, 0.0325948559
   1286,  0.439003319, 0.0285719875
   1287,  0.472402602,  0.017442828
   1288,  0.223754734, 0.0172210392
   1289,  0.231976271, 0.00912143104
   1290,  0.221333921, 0.0314588286
   1291,  0.596746266, 0.0252781231
   1292,  0.365337044, 0.0139372991
   1293,  0.444702178, 0.0315433256
   1294,  0.626092732, 0.0227162242
   1295,  0.121716045, 0.0258609243
   1296,  0.643139541, 0.0201136936
   1297,  0.226694718, 0.0279081129
   1298,  0.132004917, 0.00580203626
   1299,  0.462018788, 0.0305219851
   1300,  0.477301836, 0.0140896235
   1301,  0.421111256, 0.0314863026
   1302,  0.307368845, 0.00759262545
   1303,  0.152622238, 0.00620899536
   1304, 0.0532714054, 0.00897637848
   1305, 0.0788233578, 0.0143283792
   1306, 0.0577023216, 0.00967050996
   1307,  0.285442173, 0.00888557453
   1308,  0.142718166, 0.00552623952
   1309,  0.312062651, 0.0321199223
   1310,  0.405497104, 0.0357151739
   1311,  0.415848136, 0.0331026763
   1312,  0.454099298, 0.0196728613
   1313,  0.109506831, 0.0184761174
   1314,  0.447744548,  0.018924335
   1315,  0.518158257, 0.0193805862
   1316,   0.46675089, 0.0262703206
   1317,  0.500176549, 0.0193620399
   1318,  0.508657753, 0.0188528355
   1319,  0.489008576, 0.0284457412
   1320,  0.486463606,  0.016451586
   1321, 0.0551580787, 0.000744137098
   1322,  0.256707728, 0.0111970454
   1323,  0.102167234, 0.0159120597
   1324,  0.476031095, 0.0280537959
   1325,  0.323580593, 0.0104990192
   1326,  0.420787543, 0.0403053015
   1327, 0.0969133005, 0.0181822293
   1328,   0.24658531, 0.00917519163
   1329, 0.0646353438, 0.00115001982
   1330,  0.158310264, 0.0273401998
   1331,  0.598321378, 0.0301110242
   1332,  0.480360985, 0.0288126767
   1333,  0.251342118, 0.00932831597
   1334, 0.0460960418, 0.0013233521
   1335, 0.0745481029, 0.00144571171
   1336,  0.120975412, 0.00594008062
   1337,  0.512831092, 0.0203435086
   1338,   0.50285542, 0.0282981973
   1339,   0.36741212, 0.0278828964
   1340, 0.0854680464, 0.00311637553
   1341,  0.484729737, 0.0290931221
   1342,  0.217485428, 0.00886394642
   1343, 0.0986335278, 0.00243441062
   1344,  0.498729497, 0.0264512803
   1345,  0.166160941, 0.0281732529
   1346,  0.617143571, 0.0188372899
   1347,  0.445391834, 0.0164045058
   1348,  0.506162584, 0.0208368842
   1349,  0.522965074,  0.018825924
   1350,  0.471510768, 0.0271384697
   1351,  0.526735544,  0.017926529
   1352,  0.536644399, 0.0105665931
   1353,  0.370685935,  0.017967632
   1354,  0.105563357, 0.0173210092
   1355,  0.354148269, 0.0358381234
   1356,  0.343227834, 0.0368970931
   1357,  0.332958132, 0.0365812741
   1358,  0.457998484, 0.0176098496
   1359,  0.372926623, 0.0342368037
   1360,  0.333119184, 0.00971275475
   1361,   0.53769505, 0.0270455256
   1362,  0.663799345,  0.018896006
   1363,  0.560232937, 0.0255956296
   1364,  0.290983021, 0.0346590132
   1365, 0.0623328611, 0.0103164548
   1366,  0.426327437, 0.0295071527
   1367,  0.419016331, 0.0266404413
   1368,  0.586722314,  0.017973749
   1369,  0.242038831, 0.0101992926
   1370,  0.425389051, 0.0132366642
   1371,  0.434715569, 0.0295022018
   1372,  0.228742823, 0.00632897671
   1373, 0.0227001384, 0.00219447399
   1374,  0.628979921, 0.0199922435
   1375, 0.0474366434, 0.0118141752
   1376,  0.213698447, 0.00407294137
   1377,  0.178465009, 0.0363618731
   1378,     0.544101,  0.022533372
   1379,  0.150263518, 0.0231568292
   1380,  0.302142739, 0.0316803083
   1381,  0.091361098, 0.0193342436
   1382,   0.55607307,  0.021485649
   1383,   0.41567263, 0.0159437396
   1384,  0.178708106, 0.0158540122
   1385,  0.275131911, 0.00568875065
   1386,  0.235349953, 0.0322121829
   1387,  0.171106353, 0.0149045121
   1388,  0.297136068, 0.00876956247
   1389,  0.281781912, 0.0279229078
   1390,  0.265866995, 0.00512640364
   1391,  0.572151303, 0.0227723941
   1392,  0.163278833, 0.00175416504
   1393,   0.17313911, 0.00176878588
   1394,   0.36122942, 0.0319812559
   1395, 0.0858510137, 0.0138742626
   1396,  0.343447506, 0.00997054577
   1397,  0.322377861, 0.0317717902
   1398,  0.585064113, 0.0238846056
   1399,  0.283247024, 0.0229164083
   1400, 0.0589288101, 0.00532362331
   1401,  0.338513225, 0.0151794329
   1402,  0.329014808, 0.0147536155
   1403,  0.361736685, 0.0275287256
   1404,  0.502742052, 0.0231879652
   1405,  0.530641079,  0.021039024
   1406,  0.477775365, 0.0236318111
   1407,  0.410818607, 0.0361401513
   1408,   0.17395851, 0.0189810358
   1409, 0.0889095962, 0.0124248164
   1410,  0.540968657, 0.0159376115
   1411,  0.163243651, 0.00694954582
   1412,  0.321867883, 0.0270874817
   1413,  0.151997492, 0.0186885111
   1414,  0.426231205, 0.0191507917
   1415, 0.0784465745, 0.00476132007
   1416,  0.468386441, 0.0203851294
   1417, 0.0670139864,  0.010999525
   1418,  0.509536982, 0.0240729693
   1419,  0.243988022, 0.0141162956
   1420,  0.106969558, 0.0133216791
   1421,  0.519603729, 0.0240073912
   1422,   0.43880415, 0.0238678101
   1423,  0.237885699, 0.0119759766
   1424,  0.459318519, 0.0206064396
   1425,  0.224590957, 0.0108402437
   1426,  0.128509894, 0.0180880353
   1427,   0.48831746, 0.0233188532
   1428,   0.35299927, 0.0190663207
   1429,  0.312155962, 0.0274320114
   1430,   0.11128436, 0.00995032676
   1431,  0.441791028, 0.0172879975
   1432,  0.420870751, 0.0232331734
   1433, 0.0800410882, 0.0110639688
   1434,  0.141746417, 0.0194338206
   1435,  0.361128002, 0.0185841098
   1436,   0.11571864, 0.0102089699
   1437,  0.151400506, 0.0107845208
   1438,  0.118420891, 0.0203009378
   1439,  0.448893726,  0.029422421
   1440,  0.126716852,  0.011487782
   1441,  0.298920929, 0.0272500124
   1442,  0.143672958, 0.0106678912
   1443,  0.228697315, 0.00986526161
   1444,   0.35682413, 0.0268951803
   1445,  0.137829423, 0.0102188783
   1446,  0.302765042, 0.0272526629
   1447,  0.442479998,  0.027297711
   1448,  0.132503301, 0.0102894939
   1449,  0.122962758, 0.0212972313
   1450,  0.147491798, 0.00877210498
   1451, 0.0990402251, 0.0143720862
   1452,  0.475699037, 0.0185048468
   1453,  0.120785959, 0.0107027655
   1454,  0.365991265, 0.0184497982
   1455,  0.137648135, 0.0145885572
   1456,  0.479849756, 0.0195210837
   1457,  0.307377577, 0.0273525212
   1458,  0.446210802,  0.025109807
   1459,  0.356571436, 0.0185880773
   1460,   0.10789232, 0.0101786237
   1461,  0.492616028, 0.0240653493
   1462,  0.460914612, 0.0263415594
   1463,  0.490942448, 0.0184191614
   1464,  0.456899822, 0.0234649442
   1465,  0.223603114, 0.0234667137
   1466,  0.421179652, 0.0192869902
   1467,  0.146366969, 0.0195474904
   1468,  0.173118621, 0.00920921098
   1469,   0.55016166,  0.021122925
   1470,  0.251006514, 0.0160674937
   1471,  0.241646707, 0.0352147631
   1472,  0.230365902, 0.0297987666
   1473,  0.431120992, 0.00787287112
   1474,  0.582533717, 0.0205442179
   1475, 0.0825412348, 0.0115244845
   1476,  0.558061779, 0.0174010526
   1477,  0.321531922, 0.0153762354
   1478,  0.171070844, 0.0257479567
   1479,  0.577151716, 0.0279589184
   1480,  0.163490668, 0.0239700153
   1481,  0.591534376, 0.0266130343
   1482,  0.332950026, 0.0313480385
   1483,  0.352069765, 0.0296669882
   1484,  0.343153417, 0.0321091115
   1485,  0.292477846, 0.0284524243
   1486, 0.0988307968, 0.00775995059
   1487,  0.227158338, 0.0149225825
   1488,  0.571365178, 0.0180338714
   1489,  0.274219245, 0.0112074539
   1490,  0.233295232, 0.0279640257
   1491,  0.230420679, 0.0179989338
   1492,  0.317152947, 0.0368133597
   1493,  0.166022643, 0.0170161854
   1494,  0.262599677, 0.0114879701
   1495,  0.302580357, 0.0229369085
   1496,  0.437108397,  0.018395232
   1497,  0.233803272, 0.0216333568
   1498,  0.148393229, 0.0140716983
   1499,   0.11973042,  0.015539553
   1500,  0.312236607, 0.0226927344
   1501,  0.129460126,  0.014724236
   1502, 0.0714354888, 0.0119193494
   1503,  0.361667961, 0.0231023505
   1504,  0.321017355, 0.0187856797
   1505,  0.243843615, 0.0200525653
   1506,  0.343596458, 0.0209570024
   1507,  0.258332431, 0.0224246122
   1508,  0.352423877, 0.0261374805
   1509,  0.333553314, 0.0204211269
   1510,  0.525890589, 0.0281160492
   1511,  0.160691708, 0.0193911623
   1512,  0.328966111, 0.0198389757
   1513,  0.327370018, 0.0254644714
   1514,  0.431721568, 0.0190686807
   1515,  0.249711901, 0.0194323007
   1516,  0.338539392, 0.0207524393
   1517,  0.246408626, 0.0173358805
   1518,   0.13284348, 0.0187208243
   1519,  0.316774577, 0.0228678212
   1520,  0.236951515, 0.0256947689
   1521,  0.547154248, 0.0117747243
   1522,  0.513687849, 0.0285638869
   1523,  0.237219036, 0.0187838618
   1524,  0.279966593, 0.0332463682
   1525,  0.100688815, 0.0112867998
   1526, 0.0685925633, 0.00614258647
   1527,  0.287265688, 0.0231261384
   1528,  0.163904563, 0.0121680424
   1529, 0.0774011835, 0.00939347781
   1530,  0.250850201, 0.0332137756
   1531,  0.287562311, 0.0132564511
   1532,   0.31694445, 0.0274384879
   1533,   0.29196316, 0.0222127046
   1534,  0.312761724, 0.0124444021
   1535,  0.262404531, 0.0166270752
   1536,  0.333072603, 0.0259458683
   1537,  0.286961883,  0.018160373
   1538,   0.32101354, 0.0229382887
   1539,  0.244519219, 0.0275934525
   1540,  0.247503296,  0.023055058
   1541,  0.312449247, 0.0176846441
   1542,  0.302633852, 0.0182298589
   1543,  0.280587256,   0.01809326
   1544,  0.343995005,    0.0268142
   1545,  0.298049837, 0.0186976921
   1546,     0.307549, 0.0178226642
   1547, 0.0739325806, 0.0175921619
   1548,  0.255752891, 0.0261789933
   1549,  0.252552956, 0.0382208526
   1550,  0.293622762, 0.0149211101
   1551,  0.294733465, 0.0185551867
   1552,  0.279957473, 0.0218810495
   1553, 0.0926381573, 0.0115607996
   1554,  0.270608544, 0.00866006874
   1555,   0.26737681, 0.0334005952
   1556,  0.264823616, 0.0277946889
   1557,  0.249726996, 0.0294755418
   1558,  0.258199334, 0.0168205556
   1559,   0.29789561, 0.0137800984
   1560,  0.258623362, 0.0305447355
   1561,  0.271821797,  0.018270243
   1562,  0.277403653, 0.0260917749
   1563,  0.307552367,  0.012732775
   1564,  0.262672335, 0.0345960073
   1565,  0.267771304, 0.0205098968
   1566,  0.270003259,  0.025716221
   1567,    0.3384372, 0.0263136663
   1568, 0.0851146653, 0.0113819977
   1569,  0.258091301, 0.0346198007
   1570,  0.348002404, 0.0289184339
   1571,  0.263440669, 0.0218538344
   1572,  0.302566171, 0.0131780179
   1573, 0.00460493332, 0.00146006758
   1574,  0.129632175,  0.036244832
   1575,  0.134928629,  0.036775291
   1576,  0.883345127, 0.0125323748
   1577,  0.877964139, 0.0134138744
   1578,  0.804974794, 0.0200337861
   1579,  0.801309586, 0.0192971285
   1580,  0.194433928, 0.0414301492
   1581,  0.412164271, 0.00670967624
   1582,  0.396836698, 0.0297711845
   1583,    0.1851376, 0.0226586126
   1584, 0.0242901202, 0.00775102712
   1585,  0.199135825, 0.0325542837
   1586,  0.397462636, 0.0341306292
   1587,  0.183349147,   0.03191863
   1588, 0.0213494897, -0.00231135776
   1589,  0.785579681, 0.0160480924
   1590,  0.026699895, 0.00396895874
   1591,  0.839963853, 0.0153829828
   1592,  0.387551844, 0.0353175849
   1593,   0.20467411, 0.000201892108
   1594,  0.208879769, -0.00250264234
   1595,   0.36997807, 0.00498749921
   1596, 0.0388960689, 0.00843710732
   1597,  0.227005184, 0.0208557844
   1598,  0.231902435,   0.03814153
   1599,   0.76178813, 0.0133742094
   1600,  0.279996991, 0.00109197432
   1601,  0.262430936, 0.0392538458
   1602,  0.267674774, 0.0388994887
   1603,  0.381975412, 0.0406908579
   1604,  0.386457652, 0.0408310592
   1605, 0.0897072628, 0.0160248801
   1606,  0.483862787, 0.0375950001
   1607,  0.577156961, 0.0324243382
   1608,  0.652813852, 0.0254488494
   1609,  0.415527433, 0.0366766639
   1610,  0.426240176, 0.00753552606
   1611,  0.116949305, 0.0249741152
   1612,  0.141350314, 0.0280646458
   1613,  0.755022168, 0.0132338181
   1614,  0.374578863, 0.0384159535
   1615,   0.03194445, 0.00283538154
   1616, 0.0358300842, 0.00293937745
   1617,  0.225815311, 0.0336561836
   1618, 0.0923220739, 0.0146735972
   1619, 0.0450534299, 0.00661288574
   1620, 0.0491084494, 0.00806513894
   1621,  0.174767599,  0.032663051
   1622,  0.168175086, 0.00629648473
   1623,  0.419190496,  0.033741653
   1624,  0.453053862, 0.0266295373
   1625,  0.218573838, 0.00267523713
   1626,  0.239615038, 0.0302239805
   1627,  0.110037521, 0.00139346288
   1628,  0.581822395, 0.0284543931
   1629,  0.322458148, 0.0366978422
   1630,  0.370022535, 0.0383441336
   1631,  0.113823697, 0.0194270946
   1632,  0.632273018, 0.0180075075
   1633,  0.229689538, 0.0130161885
   1634, 0.0470732898, 0.00406294735
   1635,  0.222758263,   0.02850594
   1636, 0.0544638447, 0.00488037849
   1637,  0.422840774, 0.0282809399
   1638,  0.701426029, 0.0194803644
   1639, 0.0962082744, 0.0124628209
   1640,  0.420988768, 0.0101204161
   1641,  0.325024843, 0.0190449301
   1642,  0.254633337, 0.0299736466
   1643,  0.432380378, 0.0251201391
   1644, 0.0870050937, 0.0083883144
   1645,  0.283345252, 0.00581095833
   1646,  0.240625307, 0.0230799261
   1647,  0.110754408, 0.0141744614
   1648,  0.351283491, 0.0326208137
   1649,   0.43085283, 0.0298475996
   1650, 0.0824630782, 0.00908560026
   1651,   0.60534364, 0.0175417121
   1652,  0.493607253, 0.0278514028
   1653,  0.352534831, 0.0223061964
   1654,   0.25356704,  0.020941332
   1655,  0.343762457, 0.0154321836
   1656,   0.29006812, 0.0171877388
   1657,  0.578174949, 0.0229163542
   1658,  0.552560687, 0.0238126218
   1659,  0.552875221, 0.0194952842
   1660,   0.50591141, 0.0264645927
   1661,  0.277578384, 0.0195096992
   1662,   0.27571255, 0.0156567302
   1663,  0.142177969, 0.0151526676
   1664,  0.484804541, 0.0257550199
   1665,   0.34827742, 0.0212413333
   1666,  0.484051585, 0.0208816677
   1667,  0.248276055, 0.0153878741
   1668,  0.254455328, 0.0168597717
   1669,   0.26967597, 0.0139239551
   1670,  0.267141253, 0.00989286602
   1671,  0.283815265, 0.0145362513
   1672,  0.254164696,  0.013483882
   1673,  0.251067013, 0.0127192475
*Element, type=CPS3
 1,  698,    3,  697
 2, 1037,  692,  804
 3, 1353, 1019, 1168
 4,  276,  225, 1410
 5,  279,  221, 1317
 6, 1358, 1173,  218
 7, 1662, 1489,  306
 8, 1539, 1557,  368
 9,  249, 1579, 1073
10,  664,  737,  203
11, 1255, 1168,  316
12, 1095,  912, 1011
13,   26,  673,   25
14, 1056,  784, 1236
15,  783,  801,  252
16, 1246,  997,  411
17, 1586, 1015, 1105
18,  485,  707,  994
19,  449,  353, 1310
20, 1158,  229, 1039
21,  452, 1630, 1092
22, 1649, 1643, 1371
23, 1372, 1289, 1443
24, 1141,  392, 1330
25, 1468,  410, 1137
26, 1447, 1286, 1422
27, 1535, 1494,  308
28, 1548, 1507,  325
29, 1533,  322, 1485
30, 1656, 1537, 1531
31, 1570, 1544,  319
32, 1123, 1133,  267
33, 1433, 1650, 1475
34, 1474, 1657, 1188
35, 1469, 1658,  275
36, 1661, 1543, 1552
37,  285, 1366, 1637
*Element, type=CPS4R
  38,  691,    5,  693,  413
  39,  159,  697, 1038,  619
  40,  618,  811,  810,  157
  41,  619, 1038,  805,  158
  42,  620,  698,  697,  159
  43,  691, 1038,    4,    5
  44,  692,    1,    2,  804
  45,  812,  161,  622,  414
  46,  917,  414,  622,  162
  47,  971, 1279,  215, 1473
  48, 1496, 1422, 1643, 1514
  49, 1286,  349, 1274, 1371
  50,  445,  875,  955, 1217
  51,  445,   76,  546,  875
  52,  875,  546,   77,  446
  53,  446,   77,  547,  932
  54,  932,  547,   78,  447
  55,  940,  932,  447, 1326
  56, 1637, 1367, 1432,  285
  57,  214, 1370, 1414, 1466
  58,  966, 1581, 1065, 1157
  59, 1640, 1370,  214, 1244
  60, 1016,  414,  917, 1610
  61, 1146,  292, 1254,  937
  62, 1182, 1200,  985,  288
  63,  291, 1066, 1167, 1396
  64, 1040, 1175, 1360,  293
  65,  295, 1042, 1164, 1325
  66,  297, 1118, 1136, 1534
  67, 1534, 1563, 1302,  297
  68, 1388, 1559, 1550,  301
  69,  303, 1645, 1307,  306
  70, 1385, 1489, 1554,  304
  71,  305, 1494, 1322, 1267
  72, 1425,  311, 1372, 1443
  73,  689,   24,  708, 1096
  74,  708,   24,   13,  313
  75,   13,   14,  980,  313
  76,  789, 1051,  486, 1236
  77, 1051, 1593,  701,  486
  78,  602, 1236,  784,  141
  79,  789,  142,  603,  487
  80,  143,  795,  487,  603
  81, 1047,  795,  488, 1229
  82, 1096,  708, 1342,  315
  83,  213,  287,   11,   12
  84, 1157, 1383,  213,  966
  85,   12,    1,  966,  213
  86,  966,    1,  692, 1581
  87,  946,  287,  213, 1383
  88,  988,  695,  287, 1171
  89,   11,  287,  695,   10
  90,  696,   10,  695, 1104
  91, 1310, 1104,  352, 1407
  92,  813,   80,  550, 1243
  93,  551,  770,  771,   81
  94,  451, 1603,  770,  735
  95,  735,  734,  452, 1092
  96,  451,  355, 1234, 1603
  97, 1168, 1255, 1339,  317
  98,  290,  694, 1019, 1146
  99,  694,  290,    6,    7
 100,    6,  290,  693,    5
 101,  485, 1033,  784, 1056
 102,  486, 1263, 1056, 1236
 103,  601, 1033,  781,  140
 104,  707,   16,  412,  994
 105,  412,   16,   17,  880
 106,  880,  703,  944,  411
 107, 1408, 1387,  425, 1384
 108, 1160, 1022,  376, 1330
 109,  102,  572,  728,  743
 110,  103,  573,  725,  729
 111,  573,  104, 1575,  725
 112, 1575, 1574,  722,  726
 113,  378,  726,  722, 1081
 114,  105,  575,  721, 1017
 115,  721,  380, 1201, 1054
 116, 1295, 1611, 1438, 1449
 117,  406, 1440, 1453, 1336
 118,  478,  959, 1151, 1180
 119,  759,  595,  135,  763
 120,  758,  759,  959,  478
 121,  763,  135,  596,  762
 122,  762,  596,  136,  766
 123, 1298, 1178, 1218,  407
 124, 1501, 1440, 1448,  429
 125, 1426, 1518, 1277,  389
 126, 1220, 1081,  722,  379
 127, 1081, 1220,  389, 1277
 128, 1054,  379, 1017,  721
 129,  703,   18,  704, 1384
 130,  393, 1478, 1345, 1480
 131,  743,  376, 1022,  744
 132,  729,  728,  572,  103
 133,  704,   18,   19, 1583
 134,  705,   20,  706,  373
 135,  374, 1278, 1108, 1587
 136,  769, 1110,  569,  100
 137, 1004,  912, 1095, 1585
 138,   99,  569, 1110,  468
 139,  756,  769,  100,  570
 140,  755,  756,  570,  101
 141,  755,  375, 1024,  756
 142, 1278, 1203, 1478,  394
 143,   19,   20,  705, 1583
 144,  706,   20,   21,  372
 145,   21,   22,  702,  372
 146,  702,   22,  923,  935
 147,  960,  689, 1096, 1266
 148,  315, 1288, 1266, 1096
 149, 1465, 1266, 1288, 1597
 150, 1423,  314, 1289, 1273
 151,  314, 1523, 1497, 1491
 152, 1490, 1520, 1626, 1386
 153,  463,  879,  975, 1471
 154,  463,   94,  564,  879
 155,  879,  564,   95,  464
 156,  464,   95,  565,  864
 157,  864,  565,   96,  465
 158,  864,  465,  951, 1219
 159, 1635,  328, 1465, 1297
 160,  369, 1617, 1297, 1472
 161, 1386,  369, 1472, 1490
 162,   22,   23,  329,  923
 163,   23,   24,  689,  329
 164,   27,  497,  673,   26
 165,  212,  673,  497,   28
 166,   28,  498,  672,  212
 167,  211,  672,  498,   29
 168,   29,  499,  671,  211
 169,   34,  753,  754,  503
 170,  505,  740,  747,   35
 171,  739, 1576,  737,  664
 172,  507,  256, 1577,   37
 173,   38,  508,  255,  941
 174,   39,  509,  254,  924
 175,   40,  510,  253,  774
 176,  511,  801,  783,   41
 177,   42,  251,  801,  511
 178,  250,  840,  869,  870
 179, 1578, 1579,  249, 1067
 180,  885, 1073, 1579,  514
 181,  891, 1589, 1057,  892
 182, 1268, 1018,  894,  896
 183,  891,  895,  247, 1589
 184,  833,  832,  246, 1599
 185,  193,  654,  808,  832
 186,  246,  832,  808, 1018
 187,  194,  655,  792, 1241
 188,  248,  885,  892, 1057
 189,  210,  671,  499,   30
 190,   30,  500,  670,  210
 191,  500,   31,  209,  670
 192,  208,  669,  501,   32
 193,  207,  668,  502,   33
 194,  667,  760,  754,  206
 195,  205,  666,  753,  748
 196,   47,  896,  894,  516
 197, 1268, 1115,  246, 1018
 198,  857,  856,  652,  192
 199,  192,  653,  833,  857
 200,  926,   48,  518,  258
 201, 1613, 1020,  992,  244
 202,  958,  841,  842,  244
 203, 1036,  820,  821,  243
 204,  189,  650,  820,  803
 205, 1077,  802,  803,  242
 206,  907,   54,  524,  908
 207,  262,  897,  903, 1012
 208,  241, 1097,  839,  818
 209,  241,  818,  819, 1194
 210,  188,  649,  802,  819
 211, 1194, 1077, 1028,  261
 212,  262, 1005,  898,  897
 213,  522,  897,  898,   52
 214,  521, 1059,  901,   51
 215,  914,   50,  520,  260
 216,  848,   49,  519,  259
 217,   55,  909,  908,  524
 218,  909,   55,  525,  910
 219, 1080,  265, 1153, 1237
 220,  853,  830,  184,  645
 221,  855,  239, 1119,  852
 222, 1225, 1187,  263,  974
 223,  523,  902,  903,   53
 224,  902,  907,  974,  263
 225,  910,  905, 1060,  265
 226, 1010, 1159, 1362,  237
 227,  814,  831,  237, 1063
 228,  906,  899, 1121,  266
 229,  905,  906,  266, 1060
 230, 1121,  267, 1133, 1190
 231, 1075,  798,  815,  236
 232,  182,  643,  815,  798
 233,  900,  899,   57,  527
 234,  899,  900, 1064, 1608
 235,  235, 1075, 1123, 1296
 236, 1074,  788,  799,  235
 237,  330,   58,  528,  685
 238,  685,  528,   59,  331
 239,  982,  268, 1174, 1021
 240, 1074, 1174, 1632,  234
 241,  786,  787,  234, 1078
 242,  787,  786,  180,  641
 243,  331,   59,  529,  893
 244,  893,  529,   60,  332
 245,  962,  893,  332, 1213
 246,  233, 1078, 1155, 1346
 247,  179,  640,  785,  790
 248,  640,  180,  786,  785
 249,  332,   60,  530,  888
 250,  888,  530,   61,  333
 251,  954,  888,  333, 1087
 252,  791,  790,  232, 1117
 253,  791,  796,  178,  639
 254,  333,   61,  531,  930
 255,  930,  531,   62,  334
 256,  942,  930,  334, 1331
 257, 1651, 1131, 1122,  231
 258,  796,  231, 1122,  797
 259, 1055,  334,   62,  532
 260, 1148, 1481, 1291, 1331
 261, 1122, 1131, 1265,  230
 262,  806,  807,  637,  177
 263,  807,  817,  176,  637
 264,  806,  230, 1039,  807
 265,  536,  873,  874,   66
 266,  878, 1102,  337,  881
 267, 1188, 1657, 1391, 1488
 268, 1098,  816,  817,  229
 269, 1368,  230, 1265,  272
 270, 1398, 1474, 1368,  272
 271, 1398,  957, 1628,  273
 272,  534,  881,  882,   64
 273,  882,  881,  337, 1607
 274,  535,  877,  878,   65
 275,  339, 1101,  874,  873
 276,  537,  871,  872,   67
 277, 1147, 1049,  340, 1361
 278, 1378,  276, 1410,  226
 279,  633,  173,  846,  845
 280,  171,  632,  424,  929
 281,  845,  858,  172,  633
 282,  834,  846,  173,  634
 283,  845,  846, 1521, 1044
 284, 1382, 1659, 1261, 1476
 285, 1101,  339, 1191, 1206
 286,  878,  877,  338, 1102
 287,   68,  868,  871,  537
 288,  538,  867,  868,   68
 289,  871,  868, 1046,  340
 290, 1181, 1046,  341, 1510
 291, 1061,  929,  424, 1100
 292,  170,  631,  423,  847
 293,  631,  171,  929,  423
 294,   69,  865,  867,  538
 295,  342, 1045,  865,  866
 296,  867,  865, 1045,  341
 297, 1250, 1045,  342, 1522
 298, 1349, 1126,  224, 1351
 299,  976,  847,  423,  990
 300,  169,  630,  422,  736
 301,  630,  170,  847,  422
 302,   70,  862,  866,  539
 303,  866,  862, 1041,  342
 304, 1660, 1418, 1522, 1249
 305,  223, 1315, 1337, 1170
 306, 1034,  736,  422, 1023
 307,  168,  629,  421,  860
 308,  540,  863,  862,   70
 309, 1109, 1150,  343, 1276
 310, 1338, 1344, 1404, 1660
 311,  222, 1318, 1348, 1149
 312,  860,  421, 1216,  978
 313,  167,  628,  420,  861
 314,  440,   71,  541,  919
 315,   72,  441,  919,  541
 316,  345, 1124, 1013, 1606
 317, 1124,  345, 1341, 1319
 318,  861,  420, 1221,  964
 319,  166,  627,  419,  849
 320,  441,   72,  542,  934
 321,   73,  442,  934,  542
 322, 1606,  981, 1129,  345
 323, 1129,  346, 1324, 1332
 324, 1666, 1456,  220, 1320
 325,  952,  849,  419, 1205
 326,  165,  626,  418,  928
 327,  442,   73,  543,  886
 328,  886,  443,  991, 1002
 329, 1287, 1416, 1271,  219
 330,  928,  418, 1086,  943
 331,  625,  417,  933,  164
 332,  443,   74,  544,  904
 333,  904,  544,   75,  444
 334,  904,  444,  987, 1214
 335,  348, 1462, 1299,  987
 336,  933,  417,  939, 1088
 337,  624,  416,  915,  163
 338,  444,   75,  545,  889
 339,  889,  545,   76,  445
 340,  967,  889,  445, 1217
 341, 1439, 1293, 1447, 1458
 342, 1314,  217, 1312,  283
 343, 1088, 1260,  416,  933
 344,  623,  415,  917,  162
 345, 1058,  447,   78,  548
 346, 1128, 1311,  352,  988
 347,  549, 1053,  883,   79
 348,  552,  734,  735,   82
 349,  452,  734,  730, 1091
 350,  357, 1394, 1210, 1355
 351, 1403, 1394,  357, 1444
 352, 1454, 1292,  292, 1353
 353, 1454,  317, 1503, 1435
 354,  553,  731,  730,   83
 355,  453,  731,  741, 1090
 356, 1355, 1199,  358, 1648
 357, 1508, 1483, 1570,  319
 358,  294, 1435, 1459, 1282
 359,  318, 1459, 1435, 1503
 360,   84,  741,  731,  553
 361,  751, 1084,  454,  742
 362, 1356, 1189,  359, 1484
 363, 1567, 1544, 1484,  359
 364, 1665,  296, 1428, 1653
 365, 1655, 1506, 1516, 1401
 366,   85,  751,  742,  554
 367,  752,  764, 1068,  455
 368, 1357, 1185,  360, 1482
 369, 1513, 1536, 1482,  360
 370, 1509, 1512, 1402,  298
 371,   86,  764,  752,  555
 372,  779, 1027,  456,  765
 373, 1397, 1629, 1492,  361
 374, 1397,  361, 1532, 1412
 375, 1519,  302, 1504, 1538
 376, 1504, 1477,  300, 1641
 377,  557,  780,  779,   87
 378,  780,  793,  953,  457
 379, 1309, 1169, 1239,  362
 380, 1500, 1429, 1457,  321
 381, 1500,  321, 1546, 1541
 382,  558,  794,  793,   88
 383,  793,  794,  458,  953
 384, 1380, 1202, 1193,  363
 385, 1495, 1446, 1441,  322
 386, 1542, 1545, 1559, 1572
 387, 1545, 1542, 1495,  322
 388,  559,  825,  824,   89
 389,  824,  825,  459,  945
 390, 1364, 1240,  364, 1485
 391, 1527, 1533, 1485,  364
 392, 1533, 1527, 1537, 1656
 393,  560,  859, 1048,   90
 394,  956, 1048,  859,  965
 395, 1240, 1524, 1389,  364
 396,  365, 1562, 1389, 1524
 397, 1662,  306, 1543, 1661
 398,  561,  876, 1050,   91
 399,  460, 1050,  876, 1094
 400, 1094, 1602, 1555,  365
 401,  366, 1556, 1555, 1564
 402, 1561, 1565,  308, 1669
 403, 1565, 1571, 1535,  308
 404,   92,  562,  887,  461
 405,  887,  462, 1035, 1601
 406, 1507, 1654, 1668, 1558
 407, 1654, 1507, 1548,  326
 408,  462,   93,  563,  890
 409,  890,  563,   94,  463
 410,  890,  463, 1032, 1549
 411,  310, 1667, 1517, 1419
 412, 1540, 1539, 1646, 1505
 413,  465,   96,  566,  921
 414,  921,  566,   97,  466
 415, 1000, 1007, 1144,  370
 416,  960, 1069,  329,  689
 417,  960,  328, 1275, 1069
 418,  466,   97,  567,  918
 419,  744,  755,  101,  571
 420,  743,  744,  571,  102
 421,  106,  576,  727,  380
 422,  727,  381, 1014,  998
 423, 1262,  387, 1354, 1313
 424, 1281, 1430, 1460,  404
 425,  733,  594,  134,  758
 426,  733, 1071,  477,  732
 427,  107,  577,  675,  381
 428, 1166,  973,  386, 1327
 429, 1553, 1639,  433, 1618
 430, 1082,  477, 1186, 1343
 431,  724,  593,  133,  732
 432,  723,  724, 1082,  476
 433,  382,  675,  577,  108
 434,  108,  578,  678,  382
 435, 1076,  678,  713,  385
 436, 1395, 1409, 1605, 1154
 437, 1395,  434, 1475, 1568
 438, 1085,  476, 1192, 1340
 439,  592,  719,  720,  131
 440,  719,  592,  132,  723
 441,  385,  713,  710, 1113
 442,  709,  710,  579,  110
 443,  709,  384, 1113,  710
 444,  110,  580,  690,  709
 445, 1280, 1099, 1259,  436
 446,  400, 1526, 1417, 1365
 447, 1072,  474, 1209, 1329
 448,  716,  590,  130,  718
 449,  716, 1072,  473,  715
 450,  718,  130,  591,  717
 451,  717,  591,  131,  720
 452,  402, 1415, 1198, 1340
 453, 1529, 1433, 1305,  435
 454, 1183, 1207, 1305,  434
 455,  690, 1099,  384,  709
 456,  111,  581,  911,  383
 457,  383,  911,  938, 1259
 458,  399, 1636, 1304, 1620
 459, 1052,  473, 1195, 1321
 460, 1114,  128,  589,  714
 461,  714,  589,  129,  715
 462,  687,  688,  112,  582
 463,  683,  438, 1162,  686
 464, 1135, 1375, 1620, 1304
 465,  979,  472, 1253, 1334
 466,  471,  127,  588,  712
 467,  712,  588,  128, 1114
 468,  683,  684, 1070,  438
 469,  397, 1284, 1245,  936
 470, 1165,  470,  711,  977
 471,  470,  126,  587,  711
 472,  711,  587,  127,  471
 473,  114,  584,  439,  684
 474,  585,  116,  680,  679
 475,  439,  682,  936, 1245
 476, 1588,  947, 1373, 1161
 477,  469,  125,  586,  681
 478,  681,  586,  126,  470
 479,  680,  916, 1001,  396
 480, 1573,  674,  913,  395
 481,  125,  469, 1079,  124
 482,  395,  916,  117,  118
 483, 1573,  119,  120,  121
 484,  122,  674, 1573,  121
 485,  913,  123,  124, 1079
 486,  766,  136,  597,  767
 487,  766,  767,  968,  480
 488, 1308, 1184, 1197,  408
 489, 1445, 1442, 1663, 1455
 490, 1434,  390, 1455, 1663
 491, 1222, 1283, 1612,  378
 492,  772,  137,  598,  773
 493, 1179,  409, 1303, 1208
 494, 1498, 1442, 1450, 1437
 495, 1413, 1379,  391, 1467
 496,  376,  984, 1141, 1330
 497,  984,  377, 1196, 1141
 498,  600, 1232,  778,  139
 499,  997, 1246,  484, 1125
 500,  411,  944, 1137, 1246
 501,  392, 1511, 1480, 1330
 502, 1392, 1212, 1622, 1411
 503, 1392, 1411,  409, 1179
 504, 1212, 1392, 1120,  483
 505,  989,  484, 1246, 1393
 506,  604,  488,  795,  143
 507,  144,  800,  488,  604
 508,  983,  800,  489, 1215
 509, 1273, 1289, 1372, 1215
 510,  605,  489,  800,  144
 511,  145,  809,  489,  605
 512,  961,  809,  490,  986
 513, 1273,  309, 1369, 1423
 514,  606,  490,  809,  145
 515,  920,  146,  607,  491
 516, 1156,  986, 1009,  307
 517,  307, 1333, 1328, 1156
 518,  922,  147,  608,  492
 519, 1267, 1008,  999,  305
 520,  493,  925,  148,  609
 521,  993,  304, 1390, 1224
 522, 1669, 1670, 1554, 1489
 523,  494,  927,  149,  610
 524,  927, 1600, 1226,  493
 525,  306, 1489, 1385,  303
 526,  495,  931,  150,  611
 527,  301, 1228, 1003, 1388
 528, 1307, 1228,  301, 1531
 529,  496,  676,  151,  612
 530,  299, 1227,  995, 1302
 531, 1572, 1559, 1388,  299
 532,  613,  850,  851,  152
 533,  612,  152,  677,  496
 534,  153,  844,  850,  613
 535,  295,  850,  844, 1042
 536, 1118,  295, 1325, 1136
 537,  154,  837,  843,  614
 538, 1164, 1042,  293, 1360
 539,  155,  828,  836,  615
 540, 1175, 1040,  291, 1396
 541, 1066,  828,  829,  289
 542, 1066,  289, 1248, 1167
 543,  413,  693,  937,  949
 544,    2,    3,  698,  804
 545,  826,  835,  174,  635
 546, 1363, 1251,  274, 1211
 547, 1111,  826,  827,  228
 548,  827,  826,  635,  175
 549, 1098, 1188, 1488,  228
 550,  816,  827,  175,  636
 551,  240, 1112,  854,  838
 552, 1638, 1187,  240, 1097
 553,  819,  818,  648,  188
 554,  190,  651,  841,  821
 555, 1241,  792, 1589,  247
 556,  195,  656,  782, 1238
 557, 1238,  782,  248, 1057
 558, 1235,  777, 1067,  249
 559, 1067,  250,  870, 1578
 560, 1030,  777,  657,  197
 561,  250, 1030,  768,  840
 562, 1029,  768,  658,  198
 563,  251, 1029,  761,  801
 564, 1026,  761,  659,  199
 565, 1026,  757, 1591,  252
 566,  757,  660,  200, 1025
 567,  254, 1025,  749,  924
 568,  757,  774,  253, 1591
 569,  749,  661,  201,  750
 570,  255,  750,  746,  941
 571,  746,  662,  202,  745
 572,  256,  745,  738, 1577
 573,  663,  738,  745,  202
 574,   36,  739,  740,  505
 575,  747,  740,  204,  665
 576,   35,  747,  748,  504
 577, 1370,  215, 1514, 1414
 578, 1431, 1496, 1279,  216
 579,  943,  939,  417,  928
 580,  418,  849,  952, 1086
 581,  419,  861,  964, 1205
 582,  420,  860,  978, 1221
 583,  972,  421,  736, 1034
 584,  847,  976, 1023,  422
 585, 1261, 1659, 1469,  226
 586,  632,  172,  858,  424
 587, 1111, 1251, 1476,  227
 588,  797,  806,  177,  638
 589,  796,  797,  638,  178
 590,  790,  791,  639,  179
 591,  788,  787,  641,  181
 592,  798,  799,  642,  182
 593,  814,  815,  643,  183
 594,  830,  831,  644,  184
 595,  974,  264, 1172, 1225
 596,  855,  852,  185,  646
 597,  261, 1059,  898, 1005
 598, 1204,  241, 1005,  262
 599,  914, 1031, 1176,  259
 600,  969,  848,  259, 1176
 601,  969,  958,  244,  992
 602,  191,  652,  856,  842
 603,   48,  926,  257,  517
 604,  260, 1130, 1031,  914
 605, 1028, 1077,  242, 1130
 606, 1060,  266, 1362, 1159
 607, 1123, 1075,  236, 1133
 608, 1074,  235, 1296, 1174
 609, 1374, 1078,  234, 1632
 610, 1145,  232,  233, 1346
 611, 1264, 1117,  232, 1145
 612, 1106, 1479, 1607,  337
 613, 1106, 1211,  274, 1391
 614,  339, 1049, 1147, 1191
 615, 1206, 1658, 1382, 1363
 616, 1405, 1163,  225,  276
 617, 1421, 1315, 1349,  277
 618, 1418, 1348, 1318, 1337
 619, 1348, 1404, 1317, 1149
 620, 1463, 1427, 1666, 1320
 621, 1456, 1452, 1300,  220
 622, 1312, 1358, 1424, 1464
 623, 1139,  217, 1314, 1347
 624, 1138,  351, 1623, 1301
 625, 1274,  350, 1649, 1371
 626,   32,  502,  668,  208
 627,   31,  501,  669,  209
 628,  985,  822,  823,  288
 629,  694,    7,  699,  316
 630, 1103,  699, 1142, 1285
 631, 1603, 1234, 1093, 1604
 632, 1285, 1592, 1093, 1234
 633,  451,  735, 1092, 1614
 634,  699,    7,    8, 1142
 635,  893,  962, 1257,  331
 636,  332,  888,  954, 1213
 637,  930,  942, 1087,  333
 638,  334, 1055, 1148, 1331
 639,  272, 1481,  957, 1398
 640,  884,   63,  533, 1247
 641, 1046, 1181, 1361,  340
 642, 1045, 1250, 1510,  341
 643, 1041, 1249, 1522,  342
 644, 1124, 1319, 1652,  344
 645, 1152,  346, 1002,  991
 646, 1424,  282, 1462, 1464
 647, 1293, 1439, 1233,  967
 648,  932,  940, 1089,  446
 649,  955,  875,  446, 1089
 650,  700,    8,    9, 1582
 651,  813, 1015,  449, 1053
 652, 1105, 1015,  450, 1242
 653, 1015, 1586,  353,  449
 654, 1394,  356, 1230, 1210
 655,  357, 1355, 1648, 1483
 656, 1356, 1484,  358, 1199
 657, 1357, 1482,  359, 1189
 658, 1397, 1412, 1513,  360
 659, 1169, 1309,  361, 1492
 660, 1202, 1380,  362, 1239
 661, 1364, 1485,  363, 1193
 662,  364, 1389, 1399, 1527
 663, 1555, 1556, 1566,  365
 664, 1569, 1560,  366, 1564
 665, 1530,  367, 1549, 1032
 666,  879,  464, 1598,  975
 667, 1580,  467,   98,  568
 668,  467,  918,  567,   98
 669, 1110, 1127, 1011,  468
 670, 1022, 1160, 1345,  375
 671,  380,  727,  998, 1201
 672,  710,  713,  109,  579
 673,  686,  687,  582,  113
 674,  687,  970,  963,  688
 675, 1381, 1076, 1154, 1605
 676,  387, 1166, 1323, 1354
 677,  388, 1262, 1313, 1631
 678, 1196, 1612, 1283,  391
 679,  393, 1493, 1387, 1408
 680,  394, 1408, 1384,  704
 681, 1001,  916,  395,  913
 682,  947,  681,  470, 1165
 683,  711,  471, 1177,  977
 684,  400, 1400, 1195, 1329
 685, 1417, 1502, 1280,  436
 686, 1335, 1198, 1415,  401
 687, 1083,  475, 1198, 1335
 688,  401, 1526, 1209, 1335
 689, 1186,  404, 1486, 1343
 690, 1627, 1180,  405, 1281
 691, 1453, 1440,  430, 1499
 692, 1298, 1448, 1440,  406
 693, 1184, 1218,  480,  968
 694,  959,  479, 1256, 1151
 695, 1184, 1308,  407, 1218
 696, 1208, 1303,  408, 1197
 697,  707,  485, 1056, 1263
 698,  703,  880,   17,   18
 699,  795, 1047, 1594,  487
 700,  701,  980,   14,   15
 701, 1116,  834,  835,  227
 702, 1137,  944,  425, 1468
 703, 1460, 1420,  432,  404
 704, 1486, 1525, 1451, 1639
 705, 1409, 1553, 1618, 1605
 706, 1306, 1365, 1132,  437
 707,  970, 1135,  437,  963
 708,  115,  585,  679,  682
 709,  889,  967, 1233,  444
 710, 1143, 1326,  447, 1058
 711,  448,  883, 1053,  948
 712,  945,  458,  794,  824
 713,  956,  459,  825, 1048
 714, 1035, 1569, 1564, 1601
 715,  335, 1148, 1055,  884
 716,  950,  481,  772,  773
 717, 1120, 1392, 1179,  482
 718,  775,  138,  599,  776
 719,  800,  983, 1229,  488
 720,  809,  961, 1215,  489
 721,  146,  920,  490,  606
 722,  147,  922,  491,  607
 723,  148,  925,  492,  608
 724,  927,  493,  609,  149
 725,  931,  494,  610,  150
 726,  676,  495,  611,  151
 727,  616,  829,  828,  155
 728,  156,  822,  829,  616
 729,  958,  969, 1176,  243
 730,  207,   33,  760,  667
 731,  754,  760,   33,  503
 732,  504,  748,  753,   34
 733,  507,   38,  941,  256
 734,  508,   39,  924,  255
 735,  509,   40,  774,  254
 736,  510,   41,  783,  253
 737,  512,  840,  251,   42
 738,  870,  869,   43,  513
 739,  895,  894, 1018,  247
 740,  517,  257,  896,   47
 741,  258,  518,   49,  848
 742,  259,  519,   50,  914
 743,  260,  520,   51,  901
 744, 1059,  521,   52,  898
 745,  897,  522,   53,  903
 746,  902,  523,   54,  907
 747,   56,  905,  910,  525
 748,   57,  899,  906,  526
 749,   58,  330,  900,  527
 750,   63,  884, 1055,  532
 751, 1247,  533,   64,  882
 752,  881,  534,   65,  878
 753,  877,  535,   66,  874
 754,   71,  440,  863,  540
 755,  886,  543,   74,  443
 756,   79,  883, 1058,  548
 757,   80,  813, 1053,  549
 758, 1243,  550,   81,  771
 759,  770,  551,   82,  735
 760,  734,  552,   83,  730
 761,  765,  556,   87,  779
 762,  780,  557,   88,  793
 763,  794,  558,   89,  824
 764,  825,  559,   90, 1048
 765,  859,  560,   91, 1050
 766,  876,  561,   92,  461
 767,  887,  562,   93,  462
 768,  568,   99,  468, 1580
 769,  575,  106,  380,  721
 770,  576,  107,  381,  727
 771,  580,  111,  383,  690
 772,  683,  686,  113,  583
 773,  684,  683,  583,  114
 774,  584,  115,  682,  439
 775,  590,  716,  715,  129
 776,  593,  724,  723,  132
 777,  594,  733,  732,  133
 778,  595,  759,  758,  134
 779,  137,  772,  767,  597
 780,  773,  598,  138,  775
 781,  776,  599,  139,  778
 782, 1232,  600,  140,  781
 783,  784, 1033,  601,  141
 784, 1236,  602,  142,  789
 785,  614,  843,  844,  153
 786,  615,  836,  837,  154
 787,  291,  836,  828, 1066
 788,  823,  617,  157,  810
 789,  811,  618,  158,  805
 790,  805, 1038,  691,  413
 791, 1037,  621,  161,  812
 792,  415,  623,  163,  915
 793,  416,  624,  164,  933
 794,  625,  165,  928,  417
 795,  626,  166,  849,  418
 796,  627,  167,  861,  419
 797,  628,  168,  860,  420
 798,  629,  169,  736,  421
 799,  815,  814, 1063,  236
 800,  645,  185,  852,  853
 801,  838,  854,  186,  647
 802,  818,  839,  187,  648
 803,  803,  802,  649,  189
 804,  653,  193,  832,  833
 805,  654,  194, 1241,  808
 806,  655,  195, 1238,  792
 807,  656,  196, 1235,  782
 808,  663,  203,  737,  738
 809,  740,  739,  664,  204
 810,  748,  747,  665,  205
 811,  674,  122,  123,  913
 812,  675,  382,  973, 1043
 813,  676,  496,  995, 1227
 814,  676, 1227, 1003,  495
 815,  851, 1272,  677,  152
 816,  677, 1272,  995,  496
 817,  386,  973,  382,  678
 818, 1573,  395,  118,  119
 819, 1373, 1590, 1584,  396
 820,  682,  679, 1584,  936
 821,  916,  680,  116,  117
 822,  680,  396, 1584,  679
 823, 1070,  684,  439, 1245
 824,  685,  331,  982, 1021
 825,  970,  687,  686, 1162
 826, 1132,  938,  963,  437
 827,  938,  911,  688,  963
 828,  581,  112,  688,  911
 829, 1099,  690,  383, 1259
 830,  937,  693,  290, 1146
 831, 1019,  694,  316, 1168
 832, 1104,  695,  988,  352
 833, 1105,  700, 1582, 1586
 834,    9,   10,  696, 1582
 835,  697,    3,    4, 1038
 836,  698,  620,  160,  804
 837, 1142,    8,  700,  354
 838, 1263,   15,   16,  707
 839,  425,  944,  703, 1384
 840, 1108,  705,  373, 1587
 841,  704, 1583, 1258,  394
 842, 1095, 1011,  373,  706
 843, 1342,  708,  313, 1376
 844,  472,  979,  712, 1114
 845,  713,  678,  578,  109
 846,  473, 1052,  714,  715
 847,  714, 1052,  472, 1114
 848,  474, 1072,  716,  718
 849,  475, 1083,  717,  720
 850,  717, 1083,  474,  718
 851,  476, 1085,  719,  723
 852,  720,  719, 1085,  475
 853, 1574, 1017,  379,  722
 854,  477, 1082,  724,  732
 855,  726, 1107,  725, 1575
 856,  729,  725, 1107,  377
 857, 1107,  726,  378, 1612
 858,  984,  728,  729,  377
 859,  376,  743,  728,  984
 860,  453, 1091,  730,  731
 861,  741,   84,  554,  742
 862,  478, 1071,  733,  758
 863,  737, 1576, 1577,  738
 864,  506, 1576,  739,   36
 865,  454, 1090,  741,  742
 866,  751,   85,  555,  752
 867,  755,  744, 1022,  375
 868,  941,  746,  745,  256
 869,  662,  746,  750,  201
 870,  661,  749, 1025,  200
 871, 1025,  254,  774,  757
 872,  924,  749,  750,  255
 873,  455, 1084,  751,  752
 874,  764,   86,  556,  765
 875,  754,  753,  666,  206
 876, 1377,  769,  756, 1024
 877,  660,  757, 1026,  199
 878, 1591,  253,  783,  252
 879,  479,  959,  759,  763
 880,  198,  659,  761, 1029
 881,  252,  801,  761, 1026
 882,  480, 1006,  762,  766
 883,  763,  762, 1006,  479
 884,  456, 1068,  764,  765
 885,  481,  968,  767,  772
 886,  197,  658,  768, 1030
 887,  251,  840,  768, 1029
 888, 1243,  771, 1604,  450
 889,  482,  950,  773,  775
 890,  775,  776, 1120,  482
 891,  483, 1120,  776,  778
 892,  196,  657,  777, 1235
 893,  778, 1232,  989,  483
 894,  457, 1027,  779,  780
 895,  997, 1125,  994,  412
 896, 1232,  781,  484,  989
 897, 1073,  885,  248,  782
 898,  790,  785,  233,  232
 899,  233,  785,  786, 1078
 900,  181,  642,  799,  788
 901,  234,  787,  788, 1074
 902,  487, 1594, 1051,  789
 903,  796,  791, 1117,  231
 904,  806,  797, 1122,  230
 905,  235,  799,  798, 1075
 906,  804,  160,  621, 1037
 907,  811,  805,  413,  949
 908,  817,  816,  636,  176
 909,  247, 1018,  808, 1241
 910,  810,  811,  949, 1595
 911,  288,  823,  810, 1595
 912,  812,  414, 1065, 1581
 913,  692, 1037,  812, 1581
 914, 1015,  813, 1243,  450
 915,  183,  644,  831,  814
 916,  817,  807, 1039,  229
 917,  838,  839, 1097,  240
 918, 1194,  819,  802, 1077
 919,  821,  820,  650,  190
 920,  242,  803,  820, 1036
 921, 1031, 1036,  243, 1176
 922,  822,  156,  617,  823
 923,  835,  834,  634,  174
 924,  827,  816, 1098,  228
 925,  289,  829,  822,  985
 926, 1010,  830,  853,  238
 927,  831,  830, 1010,  237
 928, 1115, 1020, 1599,  246
 929,  245,  857,  833, 1599
 930,  227,  835,  826, 1111
 931,  836,  291, 1040,  837
 932,  293,  843,  837, 1040
 933,  839,  838,  647,  187
 934,  840,  512,   43,  869
 935,  842,  841,  651,  191
 936,  243,  821,  841,  958
 937,  843,  293, 1042,  844
 938,  850,  295, 1118,  851
 939,  845, 1044, 1352,  858
 940, 1521,  846,  834, 1116
 941,  990,  423,  929, 1061
 942,  297, 1272,  851, 1118
 943,  238,  853,  852, 1119
 944,  239,  855,  854, 1112
 945,  646,  186,  854,  855
 946,  856,  857,  245, 1613
 947,  842,  856, 1613,  244
 948, 1163, 1100, 1352,  225
 949,  965,  859, 1050,  460
 950, 1216,  421,  972,  221
 951, 1062, 1109,  440,  919
 952,  862,  863, 1276, 1041
 953, 1000,  951,  465,  921
 954,  865,   69,  539,  866
 955,  868,  867,  341, 1046
 956,  870,  513,   44, 1578
 957, 1579, 1578,   44,  514
 958,  872,  871,  340, 1049
 959,  873,  872, 1049,  339
 960,  873,  536,   67,  872
 961,  338,  877,  874, 1101
 962,  876,  461, 1602, 1094
 963, 1219, 1598,  464,  864
 964,  336, 1247,  882, 1607
 965, 1058,  883,  448, 1143
 966,  957,  335,  336, 1628
 967,  885,  514,   45,  892
 968,  892,   45,  515,  891
 969, 1214,  991,  443,  904
 970, 1549, 1035,  462,  890
 971, 1032,  463, 1471,  368
 972,  891,  515,   46,  895
 973,  895,   46,  516,  894
 974, 1020, 1115,  257,  926
 975, 1268,  896,  257, 1115
 976, 1021, 1231,  330,  685
 977, 1231, 1064,  900,  330
 978,  261, 1028,  901, 1059
 979,  903,  902,  263, 1012
 980,  987,  444, 1233,  348
 981,  905,   56,  526,  906
 982, 1121,  899, 1608,  267
 983,  264,  974,  907,  908
 984,  908,  909, 1080,  264
 985,  265, 1080,  909,  910
 986, 1011,  912, 1580,  468
 987, 1580,  912, 1004,  467
 988, 1079, 1161, 1001,  913
 989,  971,  915,  416, 1260
 990,  918,  467, 1004, 1223
 991, 1223, 1007,  466,  918
 992,  919,  441, 1013, 1062
 993, 1062, 1013, 1124,  344
 994,  491, 1008, 1009,  920
 995,  307, 1009, 1008, 1267
 996,  921,  466, 1007, 1000
 997,  999,  922,  492, 1224
 998,  922,  999, 1008,  491
 999,  923,  329, 1069,  371
1000,  371, 1223,  935,  923
1001,  993,  925,  493, 1226
1002,  926,  258,  992, 1020
1003,  494,  996, 1600,  927
1004, 1126,  990, 1061,  224
1005,  931,  495, 1003, 1228
1006,  931, 1228,  996,  494
1007,  934,  442,  981, 1606
1008,  372,  702,  935, 1585
1009, 1007, 1223,  371, 1144
1010,  436, 1259,  938, 1132
1011, 1139, 1088,  939,  217
1012,  940, 1138,  350, 1089
1013,  351, 1138,  940, 1326
1014,  271, 1131, 1651, 1140
1015,  942,  271, 1140, 1087
1016, 1173,  943, 1086,  218
1017,  939,  943, 1173,  217
1018, 1468,  425, 1387,  426
1019,  945,  459, 1193, 1202
1020, 1466,  946, 1383,  214
1021, 1128,  988, 1171, 1367
1022,  947, 1165, 1590, 1373
1023, 1020, 1613,  245, 1599
1024, 1310, 1407,  448,  948
1025,  950,  482, 1179, 1208
1026, 1208, 1197,  481,  950
1027,  370, 1269,  951, 1000
1028, 1219,  951, 1269, 1617
1029,  952, 1205,  219, 1271
1030, 1086,  952, 1271,  218
1031, 1202, 1239,  458,  945
1032, 1270, 1213,  954,  270
1033, 1217,  955, 1274,  349
1034,  350, 1274,  955, 1089
1035, 1364, 1193,  459,  956
1036,  336,  335,  884, 1247
1037, 1628,  336, 1607, 1479
1038,  406, 1256, 1178, 1298
1039,  370, 1144, 1275, 1290
1040,  961,  309, 1273, 1215
1041,  962,  269, 1294, 1257
1042, 1257,  268,  982,  331
1043, 1300,  964, 1221,  220
1044,  219, 1205,  964, 1300
1045,  965,  460, 1524, 1240
1046,  349, 1293,  967, 1217
1047,  968,  481, 1197, 1184
1048,  848,  969,  992,  258
1049, 1135,  970, 1162, 1375
1050, 1279,  971, 1260,  216
1051,  415,  915,  971, 1473
1052, 1149,  972, 1034,  222
1053, 1043,  973, 1166,  387
1054, 1225, 1112,  240, 1187
1055,  369, 1386,  975, 1598
1056, 1471,  975, 1386, 1626
1057, 1170, 1023,  976,  223
1058, 1284,  397, 1615, 1616
1059, 1320,  978, 1216, 1463
1060,  220, 1221,  978, 1320
1061,  979, 1334,  398, 1177
1062,  712,  979, 1177,  471
1063, 1593, 1134,  980,  701
1064,  442,  886, 1002,  981
1065,  346, 1129,  981, 1002
1066,  983, 1215, 1372,  311
1067, 1254, 1182,  288, 1595
1068,  309,  961,  986, 1156
1069,  986,  490,  920, 1009
1070,  991, 1214,  347, 1152
1071, 1171,  287,  946,  286
1072,  223,  976,  990, 1126
1073,  997,  412,  880,  411
1074, 1125,  484,  781, 1033
1075,  299, 1388, 1003, 1227
1076, 1385, 1226, 1600,  303
1077,  998, 1014, 1262,  388
1078, 1201,  998,  388, 1611
1079, 1224,  492,  925,  993
1080, 1531,  301, 1550, 1656
1081, 1218, 1178, 1006,  480
1082,  238, 1153, 1159, 1010
1083, 1012,  263, 1187, 1638
1084, 1012, 1638, 1204,  262
1085, 1013,  441,  934, 1606
1086, 1043, 1014,  381,  675
1087,  387, 1262, 1014, 1043
1088, 1370, 1610, 1473,  215
1089, 1610, 1370, 1640, 1016
1090,  574,  105, 1017, 1574
1091, 1353, 1168,  317, 1454
1092,  222, 1034, 1023, 1170
1093,  374, 1377, 1024, 1621
1094, 1169, 1492,  457,  953
1095, 1185, 1629, 1397,  360
1096,  901, 1028, 1130,  260
1097,  777, 1030,  250, 1067
1098, 1036, 1031, 1130,  242
1099, 1530, 1032,  368, 1557
1100, 1125, 1033,  485,  994
1101,  367, 1569, 1035, 1549
1102, 1158, 1039,  230, 1368
1103,  343, 1249, 1041, 1276
1104, 1378,  226, 1469,  275
1105,  225, 1352, 1044, 1410
1106, 1342, 1376, 1625,  311
1107, 1047, 1376, 1134, 1594
1108, 1052, 1321, 1253,  472
1109,  948, 1053,  449, 1310
1110, 1054, 1201, 1611, 1295
1111, 1054, 1295, 1220,  379
1112, 1263,  486,  701,   15
1113,  792, 1238, 1057, 1589
1114, 1100,  424,  858, 1352
1115, 1109, 1062,  344, 1150
1116, 1063, 1190, 1133,  236
1117, 1123, 1064, 1231, 1296
1118,  267, 1608, 1064, 1123
1119, 1640, 1065,  414, 1016
1120, 1244, 1157, 1065, 1640
1121, 1068,  456, 1185, 1357
1122, 1357, 1189,  455, 1068
1123, 1069, 1275, 1144,  371
1124, 1245, 1284, 1596, 1070
1125, 1186, 1627, 1281,  404
1126, 1072, 1329, 1195,  473
1127,  249, 1073,  782, 1235
1128, 1154, 1076,  385, 1183
1129,  386,  678, 1076, 1381
1130, 1155, 1078, 1374, 1294
1131, 1161, 1079,  469, 1588
1132, 1119, 1237, 1153,  238
1133, 1222,  378, 1081, 1277
1134, 1192,  476, 1082, 1343
1135, 1083, 1335, 1209,  474
1136, 1084,  455, 1189, 1356
1137, 1199,  454, 1084, 1356
1138, 1198,  475, 1085, 1340
1139,  270,  954, 1087, 1140
1140, 1260, 1088, 1139,  216
1141, 1090,  454, 1199, 1355
1142, 1210,  453, 1090, 1355
1143, 1005,  241, 1194,  261
1144, 1091,  453, 1210, 1230
1145, 1630, 1230,  356, 1359
1146, 1614, 1359,  355,  451
1147, 1604, 1093, 1592,  450
1148, 1564, 1555, 1602, 1601
1149, 1094,  365, 1524,  460
1150,  706,  372, 1585, 1095
1151, 1097,  241, 1204, 1638
1152, 1547, 1207, 1113,  384
1153,  224, 1061, 1100, 1163
1154, 1206, 1363,  338, 1101
1155, 1211, 1102,  338, 1363
1156, 1103,  355, 1359, 1255
1157,  316,  699, 1103, 1255
1158,  353,  696, 1104, 1310
1159,  354,  700, 1105, 1242
1160, 1211, 1106,  337, 1102
1161, 1106, 1391, 1657, 1479
1162, 1107, 1612, 1196,  377
1163, 1127, 1110,  769, 1377
1164, 1258, 1108, 1278,  394
1165,  863,  440, 1109, 1276
1166, 1111,  228, 1488, 1251
1167, 1113, 1207, 1183,  385
1168, 1116,  227, 1476, 1261
1169,  226, 1521, 1116, 1261
1170, 1264, 1145, 1140, 1651
1171,  239, 1172, 1237, 1119
1172, 1651,  231, 1117, 1264
1173, 1126, 1349, 1315,  223
1174, 1587, 1127, 1377,  374
1175, 1011, 1127, 1587,  373
1176, 1367, 1171,  286, 1432
1177, 1143,  448, 1407, 1609
1178, 1350, 1324,  346, 1152
1179, 1291, 1265, 1131,  271
1180, 1304, 1306,  437, 1135
1181, 1190, 1063,  237, 1362
1182, 1594, 1134, 1593, 1051
1183,  313,  980, 1134, 1376
1184, 1252, 1375, 1162,  438
1185, 1477, 1136, 1325,  300
1186, 1534, 1136,  302, 1541
1187, 1212, 1393,  410, 1622
1188, 1301, 1637, 1366, 1138
1189,  216, 1139, 1347, 1431
1190,  391, 1379, 1141, 1196
1191,  392, 1141, 1379, 1413
1192,  354, 1592, 1285, 1142
1193, 1311, 1609, 1407,  352
1194, 1609,  351, 1326, 1143
1195, 1270,  270, 1346, 1155
1196,  270, 1140, 1145, 1346
1197, 1254,  292, 1292, 1182
1198, 1378, 1147, 1361,  276
1199,  275, 1191, 1147, 1378
1200, 1481, 1148,  335,  957
1201,  221,  972, 1149, 1317
1202, 1150, 1344, 1338,  343
1203, 1336, 1151, 1256,  406
1204,  405, 1180, 1151, 1336
1205, 1152,  347, 1316, 1350
1206, 1159, 1153,  265, 1060
1207, 1327,  386, 1381,  433
1208,  269, 1270, 1155, 1294
1209,  214, 1383, 1157, 1244
1210, 1158, 1368, 1474, 1188
1211, 1160, 1330, 1480, 1345
1212,  396, 1001, 1161, 1373
1213, 1402, 1164, 1360,  298
1214,  300, 1325, 1164, 1402
1215,  397, 1590, 1165, 1615
1216, 1323, 1166, 1327, 1451
1217, 1167, 1248, 1282,  296
1218, 1170, 1337, 1318,  222
1219,  286,  946, 1466, 1432
1220, 1237, 1172,  264, 1080
1221, 1172,  239, 1112, 1225
1222, 1173, 1358, 1312,  217
1223, 1021, 1174, 1296, 1231
1224,  268, 1374, 1632, 1174
1225, 1401, 1175, 1396, 1655
1226,  298, 1360, 1175, 1401
1227, 1177,  398, 1616,  977
1228,  479, 1006, 1178, 1256
1229,  478, 1180, 1627, 1071
1230,  277, 1405, 1181, 1510
1231,  276, 1361, 1181, 1405
1232, 1200, 1182, 1292,  294
1233, 1154, 1183,  434, 1395
1234,  456, 1027, 1629, 1185
1235,  477, 1071, 1627, 1186
1236,  229, 1158, 1188, 1098
1237,  266, 1121, 1190, 1362
1238, 1658, 1206, 1191,  275
1239, 1644, 1409, 1395, 1568
1240, 1365, 1306, 1400,  400
1241, 1433, 1529,  402, 1650
1242, 1248, 1200,  294, 1282
1243, 1200, 1248,  289,  985
1244,  374, 1621, 1203, 1278
1245, 1203,  375, 1345, 1478
1246, 1547,  384, 1099, 1280
1247,  435, 1305, 1207, 1547
1248, 1502, 1417, 1526,  401
1249,  483,  989, 1393, 1212
1250,  269,  962, 1213, 1270
1251, 1214,  987, 1299,  347
1252, 1463, 1216,  221,  279
1253, 1598, 1219, 1617,  369
1254, 1283, 1222,  390, 1434
1255,  305,  999, 1224, 1390
1256,  304,  993, 1226, 1385
1257, 1228, 1307, 1645,  996
1258, 1376, 1047, 1229, 1625
1259, 1285, 1234,  355, 1103
1260, 1239, 1169,  953,  458
1261,  956,  965, 1240, 1364
1262, 1596, 1284, 1616,  398
1263, 1393, 1246, 1137,  410
1264,  343, 1338, 1660, 1249
1265, 1421, 1250, 1522,  278
1266, 1510, 1250, 1421,  277
1267, 1375, 1252, 1619, 1620
1268, 1252,  438, 1070, 1596
1269, 1253,  399, 1634, 1334
1270,  949,  937, 1254, 1595
1271, 1339, 1255, 1359,  356
1272, 1108, 1258, 1583,  705
1273, 1354, 1323,  432, 1420
1274, 1487, 1288,  315, 1425
1275,  328,  960, 1266, 1465
1276, 1269,  370, 1290, 1617
1277, 1300, 1452, 1287,  219
1278, 1272,  297, 1302,  995
1279, 1419, 1369, 1328,  310
1280, 1290, 1275,  328, 1635
1281, 1426,  389, 1449,  430
1282,  390, 1222, 1277, 1518
1283,  284, 1431, 1347, 1314
1284, 1365, 1417,  436, 1132
1285,  435, 1547, 1280, 1502
1286, 1647, 1430, 1436,  431
1287, 1428,  296, 1282, 1459
1288, 1596,  398, 1619, 1252
1289, 1422, 1286, 1371, 1643
1290, 1416,  281, 1350, 1316
1291,  281, 1416, 1287, 1452
1292, 1288, 1487, 1491, 1597
1293, 1265, 1291, 1481,  272
1294, 1331, 1291,  271,  942
1295, 1292, 1454, 1435,  294
1296,  349, 1286, 1447, 1293
1297, 1233, 1439, 1624,  348
1298,  268, 1257, 1294, 1374
1299, 1631, 1438, 1611,  388
1300,  389, 1220, 1295, 1449
1301, 1472, 1297,  327, 1490
1302, 1297, 1617, 1290, 1635
1303,  407, 1445, 1448, 1298
1304, 1406,  281, 1452, 1456
1305, 1437, 1303,  409,  427
1306, 1450, 1442, 1308,  408
1307, 1400, 1636, 1321, 1195
1308, 1502,  401, 1529,  435
1309, 1636, 1400, 1306, 1304
1310, 1308, 1442, 1445,  407
1311, 1446, 1457,  362, 1380
1312, 1457, 1429, 1309,  362
1313, 1623, 1311, 1128, 1301
1314, 1313, 1354, 1420, 1647
1315, 1438, 1631,  431, 1499
1316, 1314,  283, 1458,  284
1317, 1439, 1458,  283, 1624
1318, 1337, 1315, 1421,  278
1319,  347, 1299, 1462, 1316
1320,  218, 1271, 1416,  282
1321, 1463,  279, 1461, 1427
1322,  280, 1664, 1341, 1332
1323, 1652, 1344, 1150,  344
1324, 1427, 1461, 1652, 1319
1325, 1253, 1321, 1636,  399
1326, 1494,  305, 1390, 1670
1327, 1333,  307, 1267, 1322
1328,  281, 1406, 1324, 1350
1329, 1332, 1324, 1406,  280
1330, 1327,  433, 1639, 1451
1331,  312, 1423, 1369, 1419
1332, 1156, 1328, 1369,  309
1333,  345, 1129, 1332, 1341
1334, 1328, 1333, 1673,  310
1335, 1436,  405, 1336, 1453
1336,  356, 1394, 1403, 1339
1337, 1664, 1427, 1319, 1341
1338, 1342,  311, 1425,  315
1339,  403, 1192, 1343, 1486
1340, 1344,  279, 1317, 1404
1341, 1478,  393, 1408,  394
1342, 1431,  284, 1422, 1496
1343, 1660, 1404, 1348, 1418
1344, 1351,  224, 1163, 1405
1345,  277, 1349, 1351, 1405
1346,  292, 1146, 1019, 1353
1347,  282, 1424, 1358,  218
1348, 1476, 1251, 1363, 1382
1349, 1643, 1649, 1366,  285
1350,  350, 1138, 1366, 1649
1351, 1496, 1514,  215, 1279
1352, 1590,  397,  936, 1584
1353, 1334, 1634, 1619,  398
1354,  428, 1467, 1434, 1663
1355, 1380,  363, 1441, 1446
1356, 1659, 1382, 1658, 1469
1357, 1563, 1572,  299, 1302
1358, 1399, 1389, 1562, 1552
1359, 1554, 1670, 1390,  304
1360, 1488, 1391,  274, 1251
1361, 1468,  426, 1622,  410
1362, 1605, 1618,  433, 1381
1363, 1167,  296, 1655, 1396
1364, 1429, 1532,  361, 1309
1365, 1474, 1398,  273, 1657
1366, 1509,  298, 1401, 1516
1367,  317, 1339, 1403, 1503
1368, 1650, 1644, 1568, 1475
1369,  403, 1486, 1639, 1553
1370,  226, 1410, 1044, 1521
1371,  409, 1411, 1528,  427
1372,  320, 1513, 1412, 1538
1373, 1498, 1413, 1467,  428
1374, 1480, 1511, 1493,  393
1375, 1414, 1514, 1643,  285
1376, 1432, 1466, 1414,  285
1377,  282, 1416, 1316, 1462
1378, 1526,  400, 1329, 1209
1379,  278, 1522, 1418, 1337
1380,  326, 1540, 1515, 1654
1381, 1420, 1460, 1430, 1647
1382, 1447, 1422,  284, 1458
1383, 1523,  312, 1505, 1646
1384, 1487, 1425, 1443, 1633
1385, 1501, 1426,  430, 1440
1386, 1455,  390, 1518,  429
1387,  280, 1406, 1456, 1666
1388, 1653, 1508,  319, 1665
1389, 1665, 1506, 1655,  296
1390, 1519, 1532, 1429, 1500
1391, 1430, 1281,  405, 1436
1392,  434, 1305, 1433, 1475
1393, 1442, 1498,  428, 1663
1394,  391, 1283, 1434, 1467
1395, 1508, 1653,  318, 1444
1396, 1436, 1453, 1499,  431
1397,  427, 1413, 1498, 1437
1398, 1449, 1438, 1499,  430
1399,  283, 1312, 1464, 1624
1400,  363, 1485,  322, 1441
1401, 1450,  408, 1303, 1437
1402, 1289,  314, 1633, 1443
1403, 1444,  357, 1483, 1508
1404, 1444,  318, 1503, 1403
1405,  429, 1448, 1445, 1455
1406,  321, 1457, 1446, 1495
1407,  432, 1323, 1451, 1525
1408, 1525, 1486,  404,  432
1409, 1652, 1461,  279, 1344
1410, 1464, 1462,  348, 1624
1411, 1597, 1491, 1497,  327
1412,  327, 1297, 1465, 1597
1413, 1411, 1622,  426, 1528
1414, 1470, 1668, 1654, 1515
1415, 1673, 1470, 1667,  310
1416,  327, 1497, 1520, 1490
1417,  320, 1641, 1512, 1513
1418,  302, 1136, 1477, 1504
1419,  273, 1628, 1479, 1657
1420, 1511,  392, 1413,  427
1421, 1482, 1536, 1567,  359
1422,  358, 1570, 1483, 1648
1423, 1484, 1544, 1570,  358
1424, 1487, 1633,  314, 1491
1425,  306, 1671,  323, 1543
1426, 1523,  314, 1423,  312
1427, 1027,  457, 1492, 1629
1428, 1528, 1493, 1511,  427
1429,  426, 1387, 1493, 1528
1430, 1520, 1497, 1523, 1646
1431, 1563, 1546, 1542, 1572
1432, 1501,  429, 1518, 1426
1433, 1529,  401, 1415,  402
1434, 1412, 1532, 1519, 1538
1435,  320, 1538, 1504, 1641
1436,  312, 1419, 1517, 1505
1437,  319, 1544, 1506, 1665
1438, 1558, 1322, 1494, 1535
1439, 1536, 1509, 1516, 1567
1440, 1512, 1509, 1536, 1513
1441, 1402, 1512, 1641,  300
1442, 1540,  326, 1557, 1539
1443, 1667, 1470, 1515, 1517
1444, 1544, 1567, 1516, 1506
1445, 1534, 1541, 1546, 1563
1446, 1527, 1399,  323, 1537
1447, 1626, 1539,  368, 1471
1448, 1530, 1557, 1642,  367
1449,  323, 1671, 1531, 1537
1450, 1541,  302, 1519, 1500
1451, 1540, 1505, 1517, 1515
1452,  321, 1495, 1542, 1546
1453, 1552, 1543,  323, 1399
1454, 1561, 1662, 1661,  324
1455, 1551, 1545,  322, 1533
1456, 1550, 1559, 1545, 1551
1457,  326, 1548, 1642, 1557
1458, 1551, 1533, 1656, 1550
1459, 1409, 1644,  403, 1553
1460,  308, 1494, 1670, 1669
1461,  325, 1556,  366, 1560
1462,  325, 1507, 1571, 1556
1463, 1562,  365, 1566,  324
1464, 1560, 1642, 1548,  325
1465, 1566, 1556, 1571, 1565
1466, 1571, 1507, 1558, 1535
1467,  367, 1642, 1560, 1569
1468, 1565, 1561,  324, 1566
1469, 1552, 1562,  324, 1661
1470, 1644, 1340, 1192,  403
1471, 1574, 1575,  104,  574
1472, 1576,  506,   37, 1577
1473, 1586, 1582,  696,  353
1474,  935, 1223, 1004, 1585
1475, 1588,  469,  681,  947
1476, 1592,  354, 1242,  450
1477,  303, 1600,  996, 1645
1478,  461,  887, 1601, 1602
1479,  771,  770, 1603, 1604
1480, 1609, 1311, 1623,  351
1481, 1610,  917,  415, 1473
1482, 1614, 1092, 1630, 1359
1483,  977, 1616, 1615, 1165
1484, 1620, 1619, 1634,  399
1485,  375, 1203, 1621, 1024
1486, 1301, 1128, 1367, 1637
1487, 1229,  983,  311, 1625
1488, 1230, 1630,  452, 1091
1489, 1631, 1313, 1647,  431
1490, 1646, 1539, 1626, 1520
1491, 1644, 1650,  402, 1340
1492, 1653, 1428, 1459,  318
1493, 1662, 1561, 1669, 1489
1494, 1427, 1664,  280, 1666
1495, 1672, 1668, 1470, 1673
1496, 1558, 1668, 1672, 1322
1497, 1671,  306, 1307, 1531
1498, 1673, 1333, 1322, 1672
*Nset, nset=_G2, internal, generate
    1,  1673,     1
*Elset, elset=_G2, internal, generate
    1,  1498,     1
** Section: Section-PLA
*Solid Section, elset=_G2, material=PLA
,
*End Instance
**  
*Nset, nset=TopOptSet, instance=Airfoil-1, generate
    1,  1673,     1
*Elset, elset=TopOptSet, instance=Airfoil-1, generate
    1,  1498,     1
*Nset, nset=_PickedSet7, internal, instance=Airfoil-1, generate
 13,  24,   1
*Elset, elset=_PickedSet7, internal, instance=Airfoil-1
  74,  75, 105, 133, 143, 144, 145, 162, 163, 698, 700, 838
*Nset, nset=_PickedSet8, internal, instance=Airfoil-1, generate
  1,  12,   1
*Elset, elset=_PickedSet8, internal, instance=Airfoil-1
  43,  44,  83,  85,  89,  99, 100, 544, 634, 650, 834, 835
*Elset, elset=_Surf-Segment-0_S4, internal, instance=Airfoil-1
 164,
*Surface, type=ELEMENT, name=Surf-Segment-0
_Surf-Segment-0_S4, S4
*Elset, elset=_Surf-Segment-1_S1, internal, instance=Airfoil-1
 164,
*Elset, elset=_Surf-Segment-1_S3, internal, instance=Airfoil-1
 165,
*Surface, type=ELEMENT, name=Surf-Segment-1
_Surf-Segment-1_S1, S1
_Surf-Segment-1_S3, S3
*Elset, elset=_Surf-Segment-2_S1, internal, instance=Airfoil-1
 164,
*Elset, elset=_Surf-Segment-2_S3, internal, instance=Airfoil-1
 165,
*Surface, type=ELEMENT, name=Surf-Segment-2
_Surf-Segment-2_S1, S1
_Surf-Segment-2_S3, S3
*Elset, elset=_Surf-Segment-3_S1, internal, instance=Airfoil-1
 166,
*Elset, elset=_Surf-Segment-3_S3, internal, instance=Airfoil-1
 167,
*Surface, type=ELEMENT, name=Surf-Segment-3
_Surf-Segment-3_S1, S1
_Surf-Segment-3_S3, S3
*Elset, elset=_Surf-Segment-4_S1, internal, instance=Airfoil-1
 168,
*Elset, elset=_Surf-Segment-4_S3, internal, instance=Airfoil-1
 189,
*Surface, type=ELEMENT, name=Surf-Segment-4
_Surf-Segment-4_S1, S1
_Surf-Segment-4_S3, S3
*Elset, elset=_Surf-Segment-5_S1, internal, instance=Airfoil-1
 190, 191
*Surface, type=ELEMENT, name=Surf-Segment-5
_Surf-Segment-5_S1, S1
*Elset, elset=_Surf-Segment-6_S3, internal, instance=Airfoil-1
 192,
*Elset, elset=_Surf-Segment-6_S1, internal, instance=Airfoil-1
 627,
*Surface, type=ELEMENT, name=Surf-Segment-6
_Surf-Segment-6_S3, S3
_Surf-Segment-6_S1, S1
*Elset, elset=_Surf-Segment-7_S3, internal, instance=Airfoil-1
 193,
*Elset, elset=_Surf-Segment-7_S1, internal, instance=Airfoil-1
 626,
*Surface, type=ELEMENT, name=Surf-Segment-7
_Surf-Segment-7_S3, S3
_Surf-Segment-7_S1, S1
*Elset, elset=_Surf-Segment-8_S4, internal, instance=Airfoil-1
 169,
*Elset, elset=_Surf-Segment-8_S3, internal, instance=Airfoil-1
 731,
*Surface, type=ELEMENT, name=Surf-Segment-8
_Surf-Segment-8_S4, S4
_Surf-Segment-8_S3, S3
*Elset, elset=_Surf-Segment-9_S4, internal, instance=Airfoil-1
 576, 732
*Surface, type=ELEMENT, name=Surf-Segment-9
_Surf-Segment-9_S4, S4
*Elset, elset=_Surf-Segment-10_S4, internal, instance=Airfoil-1
 170, 574
*Surface, type=ELEMENT, name=Surf-Segment-10
_Surf-Segment-10_S4, S4
*Elset, elset=_Surf-Segment-11_S4, internal, instance=Airfoil-1
 864,
*Elset, elset=_Surf-Segment-11_S2, internal, instance=Airfoil-1
 1472,
*Surface, type=ELEMENT, name=Surf-Segment-11
_Surf-Segment-11_S4, S4
_Surf-Segment-11_S2, S2
*Elset, elset=_Surf-Segment-12_S4, internal, instance=Airfoil-1
 172,
*Elset, elset=_Surf-Segment-12_S1, internal, instance=Airfoil-1
 733,
*Surface, type=ELEMENT, name=Surf-Segment-12
_Surf-Segment-12_S4, S4
_Surf-Segment-12_S1, S1
*Elset, elset=_Surf-Segment-13_S1, internal, instance=Airfoil-1
 173, 734
*Surface, type=ELEMENT, name=Surf-Segment-13
_Surf-Segment-13_S1, S1
*Elset, elset=_Surf-Segment-14_S1, internal, instance=Airfoil-1
 174, 735
*Surface, type=ELEMENT, name=Surf-Segment-14
_Surf-Segment-14_S1, S1
*Elset, elset=_Surf-Segment-15_S1, internal, instance=Airfoil-1
 175, 736
*Surface, type=ELEMENT, name=Surf-Segment-15
_Surf-Segment-15_S1, S1
*Elset, elset=_Surf-Segment-16_S4, internal, instance=Airfoil-1
 176, 177
*Surface, type=ELEMENT, name=Surf-Segment-16
_Surf-Segment-16_S4, S4
*Elset, elset=_Surf-Segment-17_S4, internal, instance=Airfoil-1
 737,
*Elset, elset=_Surf-Segment-17_S2, internal, instance=Airfoil-1
 934,
*Surface, type=ELEMENT, name=Surf-Segment-17
_Surf-Segment-17_S4, S4
_Surf-Segment-17_S2, S2
*Elset, elset=_Surf-Segment-18_S3, internal, instance=Airfoil-1
 738,
*Elset, elset=_Surf-Segment-18_S2, internal, instance=Airfoil-1
 956,
*Surface, type=ELEMENT, name=Surf-Segment-18
_Surf-Segment-18_S3, S3
_Surf-Segment-18_S2, S2
*Elset, elset=_Surf-Segment-19_S3, internal, instance=Airfoil-1
 957,
*Elset, elset=_Surf-Segment-19_S2, internal, instance=Airfoil-1
 967,
*Surface, type=ELEMENT, name=Surf-Segment-19
_Surf-Segment-19_S3, S3
_Surf-Segment-19_S2, S2
*Elset, elset=_Surf-Segment-20_S2, internal, instance=Airfoil-1
 968, 972
*Surface, type=ELEMENT, name=Surf-Segment-20
_Surf-Segment-20_S2, S2
*Elset, elset=_Surf-Segment-21_S4, internal, instance=Airfoil-1
 196,
*Elset, elset=_Surf-Segment-21_S2, internal, instance=Airfoil-1
 973,
*Surface, type=ELEMENT, name=Surf-Segment-21
_Surf-Segment-21_S4, S4
_Surf-Segment-21_S2, S2
*Elset, elset=_Surf-Segment-22_S4, internal, instance=Airfoil-1
 603, 740
*Surface, type=ELEMENT, name=Surf-Segment-22
_Surf-Segment-22_S4, S4
*Elset, elset=_Surf-Segment-23_S2, internal, instance=Airfoil-1
 200, 741
*Surface, type=ELEMENT, name=Surf-Segment-23
_Surf-Segment-23_S2, S2
*Elset, elset=_Surf-Segment-24_S2, internal, instance=Airfoil-1
 216, 742
*Surface, type=ELEMENT, name=Surf-Segment-24
_Surf-Segment-24_S2, S2
*Elset, elset=_Surf-Segment-25_S2, internal, instance=Airfoil-1
 215, 743
*Surface, type=ELEMENT, name=Surf-Segment-25
_Surf-Segment-25_S2, S2
*Elset, elset=_Surf-Segment-26_S4, internal, instance=Airfoil-1
 214,
*Elset, elset=_Surf-Segment-26_S2, internal, instance=Airfoil-1
 744,
*Surface, type=ELEMENT, name=Surf-Segment-26
_Surf-Segment-26_S4, S4
_Surf-Segment-26_S2, S2
*Elset, elset=_Surf-Segment-27_S4, internal, instance=Airfoil-1
 213,
*Elset, elset=_Surf-Segment-27_S2, internal, instance=Airfoil-1
 745,
*Surface, type=ELEMENT, name=Surf-Segment-27
_Surf-Segment-27_S4, S4
_Surf-Segment-27_S2, S2
*Elset, elset=_Surf-Segment-28_S4, internal, instance=Airfoil-1
 223,
*Elset, elset=_Surf-Segment-28_S2, internal, instance=Airfoil-1
 746,
*Surface, type=ELEMENT, name=Surf-Segment-28
_Surf-Segment-28_S4, S4
_Surf-Segment-28_S2, S2
*Elset, elset=_Surf-Segment-29_S2, internal, instance=Airfoil-1
 206,
*Elset, elset=_Surf-Segment-29_S4, internal, instance=Airfoil-1
 217,
*Surface, type=ELEMENT, name=Surf-Segment-29
_Surf-Segment-29_S2, S2
_Surf-Segment-29_S4, S4
*Elset, elset=_Surf-Segment-30_S2, internal, instance=Airfoil-1
 218,
*Elset, elset=_Surf-Segment-30_S4, internal, instance=Airfoil-1
 747,
*Surface, type=ELEMENT, name=Surf-Segment-30
_Surf-Segment-30_S2, S2
_Surf-Segment-30_S4, S4
*Elset, elset=_Surf-Segment-31_S4, internal, instance=Airfoil-1
 748,
*Elset, elset=_Surf-Segment-31_S2, internal, instance=Airfoil-1
 981,
*Surface, type=ELEMENT, name=Surf-Segment-31
_Surf-Segment-31_S4, S4
_Surf-Segment-31_S2, S2
*Elset, elset=_Surf-Segment-32_S3, internal, instance=Airfoil-1
 233,
*Elset, elset=_Surf-Segment-32_S4, internal, instance=Airfoil-1
 749,
*Surface, type=ELEMENT, name=Surf-Segment-32
_Surf-Segment-32_S3, S3
_Surf-Segment-32_S4, S4
*Elset, elset=_Surf-Segment-33_S2, internal, instance=Airfoil-1
 237, 238
*Surface, type=ELEMENT, name=Surf-Segment-33
_Surf-Segment-33_S2, S2
*Elset, elset=_Surf-Segment-34_S2, internal, instance=Airfoil-1
 243, 244
*Surface, type=ELEMENT, name=Surf-Segment-34
_Surf-Segment-34_S2, S2
*Elset, elset=_Surf-Segment-35_S2, internal, instance=Airfoil-1
 249, 250
*Surface, type=ELEMENT, name=Surf-Segment-35
_Surf-Segment-35_S2, S2
*Elset, elset=_Surf-Segment-36_S2, internal, instance=Airfoil-1
 254, 255
*Surface, type=ELEMENT, name=Surf-Segment-36
_Surf-Segment-36_S2, S2
*Elset, elset=_Surf-Segment-37_S3, internal, instance=Airfoil-1
 259,
*Elset, elset=_Surf-Segment-37_S4, internal, instance=Airfoil-1
 750,
*Surface, type=ELEMENT, name=Surf-Segment-37
_Surf-Segment-37_S3, S3
_Surf-Segment-37_S4, S4
*Elset, elset=_Surf-Segment-38_S2, internal, instance=Airfoil-1
 640, 751
*Surface, type=ELEMENT, name=Surf-Segment-38
_Surf-Segment-38_S2, S2
*Elset, elset=_Surf-Segment-39_S4, internal, instance=Airfoil-1
 272,
*Elset, elset=_Surf-Segment-39_S2, internal, instance=Airfoil-1
 752,
*Surface, type=ELEMENT, name=Surf-Segment-39
_Surf-Segment-39_S4, S4
_Surf-Segment-39_S2, S2
*Elset, elset=_Surf-Segment-40_S4, internal, instance=Airfoil-1
 274,
*Elset, elset=_Surf-Segment-40_S2, internal, instance=Airfoil-1
 753,
*Surface, type=ELEMENT, name=Surf-Segment-40
_Surf-Segment-40_S4, S4
_Surf-Segment-40_S2, S2
*Elset, elset=_Surf-Segment-41_S4, internal, instance=Airfoil-1
 265,
*Elset, elset=_Surf-Segment-41_S2, internal, instance=Airfoil-1
 960,
*Surface, type=ELEMENT, name=Surf-Segment-41
_Surf-Segment-41_S4, S4
_Surf-Segment-41_S2, S2
*Elset, elset=_Surf-Segment-42_S4, internal, instance=Airfoil-1
 276, 287
*Surface, type=ELEMENT, name=Surf-Segment-42
_Surf-Segment-42_S4, S4
*Elset, elset=_Surf-Segment-43_S4, internal, instance=Airfoil-1
 288, 294
*Surface, type=ELEMENT, name=Surf-Segment-43
_Surf-Segment-43_S4, S4
*Elset, elset=_Surf-Segment-44_S4, internal, instance=Airfoil-1
 302,
*Elset, elset=_Surf-Segment-44_S2, internal, instance=Airfoil-1
 954,
*Surface, type=ELEMENT, name=Surf-Segment-44
_Surf-Segment-44_S4, S4
_Surf-Segment-44_S2, S2
*Elset, elset=_Surf-Segment-45_S4, internal, instance=Airfoil-1
 308, 754
*Surface, type=ELEMENT, name=Surf-Segment-45
_Surf-Segment-45_S4, S4
*Elset, elset=_Surf-Segment-46_S2, internal, instance=Airfoil-1
 314,
*Elset, elset=_Surf-Segment-46_S4, internal, instance=Airfoil-1
 315,
*Surface, type=ELEMENT, name=Surf-Segment-46
_Surf-Segment-46_S2, S2
_Surf-Segment-46_S4, S4
*Elset, elset=_Surf-Segment-47_S2, internal, instance=Airfoil-1
 320,
*Elset, elset=_Surf-Segment-47_S4, internal, instance=Airfoil-1
 321,
*Surface, type=ELEMENT, name=Surf-Segment-47
_Surf-Segment-47_S2, S2
_Surf-Segment-47_S4, S4
*Elset, elset=_Surf-Segment-48_S2, internal, instance=Airfoil-1
 327, 755
*Surface, type=ELEMENT, name=Surf-Segment-48
_Surf-Segment-48_S2, S2
*Elset, elset=_Surf-Segment-49_S2, internal, instance=Airfoil-1
 332, 333
*Surface, type=ELEMENT, name=Surf-Segment-49
_Surf-Segment-49_S2, S2
*Elset, elset=_Surf-Segment-50_S2, internal, instance=Airfoil-1
 338, 339
*Surface, type=ELEMENT, name=Surf-Segment-50
_Surf-Segment-50_S2, S2
*Elset, elset=_Surf-Segment-51_S2, internal, instance=Airfoil-1
 51, 52
*Surface, type=ELEMENT, name=Surf-Segment-51
_Surf-Segment-51_S2, S2
*Elset, elset=_Surf-Segment-52_S2, internal, instance=Airfoil-1
 53, 54
*Surface, type=ELEMENT, name=Surf-Segment-52
_Surf-Segment-52_S2, S2
*Elset, elset=_Surf-Segment-53_S3, internal, instance=Airfoil-1
 345,
*Elset, elset=_Surf-Segment-53_S4, internal, instance=Airfoil-1
 756,
*Surface, type=ELEMENT, name=Surf-Segment-53
_Surf-Segment-53_S3, S3
_Surf-Segment-53_S4, S4
*Elset, elset=_Surf-Segment-54_S4, internal, instance=Airfoil-1
 347, 757
*Surface, type=ELEMENT, name=Surf-Segment-54
_Surf-Segment-54_S4, S4
*Elset, elset=_Surf-Segment-55_S2, internal, instance=Airfoil-1
  92, 758
*Surface, type=ELEMENT, name=Surf-Segment-55
_Surf-Segment-55_S2, S2
*Elset, elset=_Surf-Segment-56_S4, internal, instance=Airfoil-1
 93,
*Elset, elset=_Surf-Segment-56_S2, internal, instance=Airfoil-1
 759,
*Surface, type=ELEMENT, name=Surf-Segment-56
_Surf-Segment-56_S4, S4
_Surf-Segment-56_S2, S2
*Elset, elset=_Surf-Segment-57_S4, internal, instance=Airfoil-1
 348,
*Elset, elset=_Surf-Segment-57_S2, internal, instance=Airfoil-1
 760,
*Surface, type=ELEMENT, name=Surf-Segment-57
_Surf-Segment-57_S4, S4
_Surf-Segment-57_S2, S2
*Elset, elset=_Surf-Segment-58_S4, internal, instance=Airfoil-1
 354, 360
*Surface, type=ELEMENT, name=Surf-Segment-58
_Surf-Segment-58_S4, S4
*Elset, elset=_Surf-Segment-59_S4, internal, instance=Airfoil-1
 366,
*Elset, elset=_Surf-Segment-59_S2, internal, instance=Airfoil-1
 861,
*Surface, type=ELEMENT, name=Surf-Segment-59
_Surf-Segment-59_S4, S4
_Surf-Segment-59_S2, S2
*Elset, elset=_Surf-Segment-60_S4, internal, instance=Airfoil-1
 371,
*Elset, elset=_Surf-Segment-60_S2, internal, instance=Airfoil-1
 866,
*Surface, type=ELEMENT, name=Surf-Segment-60
_Surf-Segment-60_S4, S4
_Surf-Segment-60_S2, S2
*Elset, elset=_Surf-Segment-61_S2, internal, instance=Airfoil-1
 761, 874
*Surface, type=ELEMENT, name=Surf-Segment-61
_Surf-Segment-61_S2, S2
*Elset, elset=_Surf-Segment-62_S4, internal, instance=Airfoil-1
 377,
*Elset, elset=_Surf-Segment-62_S2, internal, instance=Airfoil-1
 762,
*Surface, type=ELEMENT, name=Surf-Segment-62
_Surf-Segment-62_S4, S4
_Surf-Segment-62_S2, S2
*Elset, elset=_Surf-Segment-63_S4, internal, instance=Airfoil-1
 382,
*Elset, elset=_Surf-Segment-63_S2, internal, instance=Airfoil-1
 763,
*Surface, type=ELEMENT, name=Surf-Segment-63
_Surf-Segment-63_S4, S4
_Surf-Segment-63_S2, S2
*Elset, elset=_Surf-Segment-64_S4, internal, instance=Airfoil-1
 388,
*Elset, elset=_Surf-Segment-64_S2, internal, instance=Airfoil-1
 764,
*Surface, type=ELEMENT, name=Surf-Segment-64
_Surf-Segment-64_S4, S4
_Surf-Segment-64_S2, S2
*Elset, elset=_Surf-Segment-65_S4, internal, instance=Airfoil-1
 393,
*Elset, elset=_Surf-Segment-65_S2, internal, instance=Airfoil-1
 765,
*Surface, type=ELEMENT, name=Surf-Segment-65
_Surf-Segment-65_S4, S4
_Surf-Segment-65_S2, S2
*Elset, elset=_Surf-Segment-66_S4, internal, instance=Airfoil-1
 398,
*Elset, elset=_Surf-Segment-66_S2, internal, instance=Airfoil-1
 766,
*Surface, type=ELEMENT, name=Surf-Segment-66
_Surf-Segment-66_S4, S4
_Surf-Segment-66_S2, S2
*Elset, elset=_Surf-Segment-67_S1, internal, instance=Airfoil-1
 404,
*Elset, elset=_Surf-Segment-67_S2, internal, instance=Airfoil-1
 767,
*Surface, type=ELEMENT, name=Surf-Segment-67
_Surf-Segment-67_S1, S1
_Surf-Segment-67_S2, S2
*Elset, elset=_Surf-Segment-68_S2, internal, instance=Airfoil-1
 408, 409
*Surface, type=ELEMENT, name=Surf-Segment-68
_Surf-Segment-68_S2, S2
*Elset, elset=_Surf-Segment-69_S2, internal, instance=Airfoil-1
 154, 155
*Surface, type=ELEMENT, name=Surf-Segment-69
_Surf-Segment-69_S2, S2
*Elset, elset=_Surf-Segment-70_S2, internal, instance=Airfoil-1
 156, 157
*Surface, type=ELEMENT, name=Surf-Segment-70
_Surf-Segment-70_S2, S2
*Elset, elset=_Surf-Segment-71_S2, internal, instance=Airfoil-1
 413, 414
*Surface, type=ELEMENT, name=Surf-Segment-71
_Surf-Segment-71_S2, S2
*Elset, elset=_Surf-Segment-72_S2, internal, instance=Airfoil-1
 418,
*Elset, elset=_Surf-Segment-72_S3, internal, instance=Airfoil-1
 668,
*Surface, type=ELEMENT, name=Surf-Segment-72
_Surf-Segment-72_S2, S2
_Surf-Segment-72_S3, S3
*Elset, elset=_Surf-Segment-73_S3, internal, instance=Airfoil-1
 667,
*Elset, elset=_Surf-Segment-73_S1, internal, instance=Airfoil-1
 768,
*Surface, type=ELEMENT, name=Surf-Segment-73
_Surf-Segment-73_S3, S3
_Surf-Segment-73_S1, S1
*Elset, elset=_Surf-Segment-74_S3, internal, instance=Airfoil-1
 136,
*Elset, elset=_Surf-Segment-74_S1, internal, instance=Airfoil-1
 138,
*Surface, type=ELEMENT, name=Surf-Segment-74
_Surf-Segment-74_S3, S3
_Surf-Segment-74_S1, S1
*Elset, elset=_Surf-Segment-75_S3, internal, instance=Airfoil-1
 139, 140
*Surface, type=ELEMENT, name=Surf-Segment-75
_Surf-Segment-75_S3, S3
*Elset, elset=_Surf-Segment-76_S3, internal, instance=Airfoil-1
 419, 420
*Surface, type=ELEMENT, name=Surf-Segment-76
_Surf-Segment-76_S3, S3
*Elset, elset=_Surf-Segment-77_S1, internal, instance=Airfoil-1
 109,
*Elset, elset=_Surf-Segment-77_S3, internal, instance=Airfoil-1
 132,
*Surface, type=ELEMENT, name=Surf-Segment-77
_Surf-Segment-77_S1, S1
_Surf-Segment-77_S3, S3
*Elset, elset=_Surf-Segment-78_S1, internal, instance=Airfoil-1
 110, 111
*Surface, type=ELEMENT, name=Surf-Segment-78
_Surf-Segment-78_S1, S1
*Elset, elset=_Surf-Segment-79_S1, internal, instance=Airfoil-1
 1090,
*Elset, elset=_Surf-Segment-79_S3, internal, instance=Airfoil-1
 1471,
*Surface, type=ELEMENT, name=Surf-Segment-79
_Surf-Segment-79_S1, S1
_Surf-Segment-79_S3, S3
*Elset, elset=_Surf-Segment-80_S1, internal, instance=Airfoil-1
 114, 769
*Surface, type=ELEMENT, name=Surf-Segment-80
_Surf-Segment-80_S1, S1
*Elset, elset=_Surf-Segment-81_S1, internal, instance=Airfoil-1
 421, 770
*Surface, type=ELEMENT, name=Surf-Segment-81
_Surf-Segment-81_S1, S1
*Elset, elset=_Surf-Segment-82_S1, internal, instance=Airfoil-1
 427,
*Elset, elset=_Surf-Segment-82_S3, internal, instance=Airfoil-1
 433,
*Surface, type=ELEMENT, name=Surf-Segment-82
_Surf-Segment-82_S1, S1
_Surf-Segment-82_S3, S3
*Elset, elset=_Surf-Segment-83_S1, internal, instance=Airfoil-1
 434,
*Elset, elset=_Surf-Segment-83_S3, internal, instance=Airfoil-1
 845,
*Surface, type=ELEMENT, name=Surf-Segment-83
_Surf-Segment-83_S1, S1
_Surf-Segment-83_S3, S3
*Elset, elset=_Surf-Segment-84_S3, internal, instance=Airfoil-1
 442, 672
*Surface, type=ELEMENT, name=Surf-Segment-84
_Surf-Segment-84_S3, S3
*Elset, elset=_Surf-Segment-85_S1, internal, instance=Airfoil-1
 444, 771
*Surface, type=ELEMENT, name=Surf-Segment-85
_Surf-Segment-85_S1, S1
*Elset, elset=_Surf-Segment-86_S1, internal, instance=Airfoil-1
 456, 828
*Surface, type=ELEMENT, name=Surf-Segment-86
_Surf-Segment-86_S1, S1
*Elset, elset=_Surf-Segment-87_S3, internal, instance=Airfoil-1
 462, 673
*Surface, type=ELEMENT, name=Surf-Segment-87
_Surf-Segment-87_S3, S3
*Elset, elset=_Surf-Segment-88_S3, internal, instance=Airfoil-1
 772, 773
*Surface, type=ELEMENT, name=Surf-Segment-88
_Surf-Segment-88_S3, S3
*Elset, elset=_Surf-Segment-89_S1, internal, instance=Airfoil-1
 473, 774
*Surface, type=ELEMENT, name=Surf-Segment-89
_Surf-Segment-89_S1, S1
*Elset, elset=_Surf-Segment-90_S1, internal, instance=Airfoil-1
 474, 708
*Surface, type=ELEMENT, name=Surf-Segment-90
_Surf-Segment-90_S1, S1
*Elset, elset=_Surf-Segment-91_S3, internal, instance=Airfoil-1
 821,
*Surface, type=ELEMENT, name=Surf-Segment-91
_Surf-Segment-91_S3, S3
*Elset, elset=_Surf-Segment-92_S3, internal, instance=Airfoil-1
 482,
*Surface, type=ELEMENT, name=Surf-Segment-92
_Surf-Segment-92_S3, S3
*Elset, elset=_Surf-Segment-93_S3, internal, instance=Airfoil-1
 818,
*Surface, type=ELEMENT, name=Surf-Segment-93
_Surf-Segment-93_S3, S3
*Elset, elset=_Surf-Segment-94_S2, internal, instance=Airfoil-1
 483,
*Surface, type=ELEMENT, name=Surf-Segment-94
_Surf-Segment-94_S2, S2
*Elset, elset=_Surf-Segment-95_S3, internal, instance=Airfoil-1
 483,
*Surface, type=ELEMENT, name=Surf-Segment-95
_Surf-Segment-95_S3, S3
*Elset, elset=_Surf-Segment-96_S3, internal, instance=Airfoil-1
 483,
*Surface, type=ELEMENT, name=Surf-Segment-96
_Surf-Segment-96_S3, S3
*Elset, elset=_Surf-Segment-97_S4, internal, instance=Airfoil-1
 484,
*Surface, type=ELEMENT, name=Surf-Segment-97
_Surf-Segment-97_S4, S4
*Elset, elset=_Surf-Segment-98_S2, internal, instance=Airfoil-1
 811,
*Surface, type=ELEMENT, name=Surf-Segment-98
_Surf-Segment-98_S2, S2
*Elset, elset=_Surf-Segment-99_S2, internal, instance=Airfoil-1
 485,
*Surface, type=ELEMENT, name=Surf-Segment-99
_Surf-Segment-99_S2, S2
*Elset, elset=_Surf-Segment-100_S4, internal, instance=Airfoil-1
 481,
*Surface, type=ELEMENT, name=Surf-Segment-100
_Surf-Segment-100_S4, S4
*Elset, elset=_Surf-Segment-101_S2, internal, instance=Airfoil-1
 477, 478
*Surface, type=ELEMENT, name=Surf-Segment-101
_Surf-Segment-101_S2, S2
*Elset, elset=_Surf-Segment-102_S2, internal, instance=Airfoil-1
 471, 472
*Surface, type=ELEMENT, name=Surf-Segment-102
_Surf-Segment-102_S2, S2
*Elset, elset=_Surf-Segment-103_S2, internal, instance=Airfoil-1
 466, 467
*Surface, type=ELEMENT, name=Surf-Segment-103
_Surf-Segment-103_S2, S2
*Elset, elset=_Surf-Segment-104_S2, internal, instance=Airfoil-1
 460, 461
*Surface, type=ELEMENT, name=Surf-Segment-104
_Surf-Segment-104_S2, S2
*Elset, elset=_Surf-Segment-105_S2, internal, instance=Airfoil-1
 448,
*Elset, elset=_Surf-Segment-105_S4, internal, instance=Airfoil-1
 775,
*Surface, type=ELEMENT, name=Surf-Segment-105
_Surf-Segment-105_S2, S2
_Surf-Segment-105_S4, S4
*Elset, elset=_Surf-Segment-106_S2, internal, instance=Airfoil-1
 450, 451
*Surface, type=ELEMENT, name=Surf-Segment-106
_Surf-Segment-106_S2, S2
*Elset, elset=_Surf-Segment-107_S4, internal, instance=Airfoil-1
 439,
*Elset, elset=_Surf-Segment-107_S2, internal, instance=Airfoil-1
 440,
*Surface, type=ELEMENT, name=Surf-Segment-107
_Surf-Segment-107_S4, S4
_Surf-Segment-107_S2, S2
*Elset, elset=_Surf-Segment-108_S2, internal, instance=Airfoil-1
 431,
*Elset, elset=_Surf-Segment-108_S4, internal, instance=Airfoil-1
 776,
*Surface, type=ELEMENT, name=Surf-Segment-108
_Surf-Segment-108_S2, S2
_Surf-Segment-108_S4, S4
*Elset, elset=_Surf-Segment-109_S2, internal, instance=Airfoil-1
 425,
*Elset, elset=_Surf-Segment-109_S4, internal, instance=Airfoil-1
 777,
*Surface, type=ELEMENT, name=Surf-Segment-109
_Surf-Segment-109_S2, S2
_Surf-Segment-109_S4, S4
*Elset, elset=_Surf-Segment-110_S2, internal, instance=Airfoil-1
 119,
*Elset, elset=_Surf-Segment-110_S4, internal, instance=Airfoil-1
 778,
*Surface, type=ELEMENT, name=Surf-Segment-110
_Surf-Segment-110_S2, S2
_Surf-Segment-110_S4, S4
*Elset, elset=_Surf-Segment-111_S2, internal, instance=Airfoil-1
 121, 122
*Surface, type=ELEMENT, name=Surf-Segment-111
_Surf-Segment-111_S2, S2
*Elset, elset=_Surf-Segment-112_S2, internal, instance=Airfoil-1
 486,
*Elset, elset=_Surf-Segment-112_S4, internal, instance=Airfoil-1
 779,
*Surface, type=ELEMENT, name=Surf-Segment-112
_Surf-Segment-112_S2, S2
_Surf-Segment-112_S4, S4
*Elset, elset=_Surf-Segment-113_S2, internal, instance=Airfoil-1
 492, 780
*Surface, type=ELEMENT, name=Surf-Segment-113
_Surf-Segment-113_S2, S2
*Elset, elset=_Surf-Segment-114_S2, internal, instance=Airfoil-1
 718, 781
*Surface, type=ELEMENT, name=Surf-Segment-114
_Surf-Segment-114_S2, S2
*Elset, elset=_Surf-Segment-115_S4, internal, instance=Airfoil-1
 498,
*Elset, elset=_Surf-Segment-115_S2, internal, instance=Airfoil-1
 782,
*Surface, type=ELEMENT, name=Surf-Segment-115
_Surf-Segment-115_S4, S4
_Surf-Segment-115_S2, S2
*Elset, elset=_Surf-Segment-116_S4, internal, instance=Airfoil-1
 103,
*Elset, elset=_Surf-Segment-116_S3, internal, instance=Airfoil-1
 783,
*Surface, type=ELEMENT, name=Surf-Segment-116
_Surf-Segment-116_S4, S4
_Surf-Segment-116_S3, S3
*Elset, elset=_Surf-Segment-117_S4, internal, instance=Airfoil-1
 78,
*Elset, elset=_Surf-Segment-117_S2, internal, instance=Airfoil-1
 784,
*Surface, type=ELEMENT, name=Surf-Segment-117
_Surf-Segment-117_S4, S4
_Surf-Segment-117_S2, S2
*Elset, elset=_Surf-Segment-118_S2, internal, instance=Airfoil-1
 79,
*Elset, elset=_Surf-Segment-118_S4, internal, instance=Airfoil-1
 80,
*Surface, type=ELEMENT, name=Surf-Segment-118
_Surf-Segment-118_S2, S2
_Surf-Segment-118_S4, S4
*Elset, elset=_Surf-Segment-119_S4, internal, instance=Airfoil-1
 506, 507
*Surface, type=ELEMENT, name=Surf-Segment-119
_Surf-Segment-119_S4, S4
*Elset, elset=_Surf-Segment-120_S4, internal, instance=Airfoil-1
 510, 511
*Surface, type=ELEMENT, name=Surf-Segment-120
_Surf-Segment-120_S4, S4
*Elset, elset=_Surf-Segment-121_S4, internal, instance=Airfoil-1
 514, 721
*Surface, type=ELEMENT, name=Surf-Segment-121
_Surf-Segment-121_S4, S4
*Elset, elset=_Surf-Segment-122_S2, internal, instance=Airfoil-1
 515,
*Elset, elset=_Surf-Segment-122_S4, internal, instance=Airfoil-1
 722,
*Surface, type=ELEMENT, name=Surf-Segment-122
_Surf-Segment-122_S2, S2
_Surf-Segment-122_S4, S4
*Elset, elset=_Surf-Segment-123_S2, internal, instance=Airfoil-1
 518,
*Elset, elset=_Surf-Segment-123_S4, internal, instance=Airfoil-1
 723,
*Surface, type=ELEMENT, name=Surf-Segment-123
_Surf-Segment-123_S2, S2
_Surf-Segment-123_S4, S4
*Elset, elset=_Surf-Segment-124_S3, internal, instance=Airfoil-1
 520, 724
*Surface, type=ELEMENT, name=Surf-Segment-124
_Surf-Segment-124_S3, S3
*Elset, elset=_Surf-Segment-125_S3, internal, instance=Airfoil-1
 523, 725
*Surface, type=ELEMENT, name=Surf-Segment-125
_Surf-Segment-125_S3, S3
*Elset, elset=_Surf-Segment-126_S3, internal, instance=Airfoil-1
 526, 726
*Surface, type=ELEMENT, name=Surf-Segment-126
_Surf-Segment-126_S3, S3
*Elset, elset=_Surf-Segment-127_S3, internal, instance=Airfoil-1
 529,
*Elset, elset=_Surf-Segment-127_S1, internal, instance=Airfoil-1
 533,
*Surface, type=ELEMENT, name=Surf-Segment-127
_Surf-Segment-127_S3, S3
_Surf-Segment-127_S1, S1
*Elset, elset=_Surf-Segment-128_S4, internal, instance=Airfoil-1
 532, 534
*Surface, type=ELEMENT, name=Surf-Segment-128
_Surf-Segment-128_S4, S4
*Elset, elset=_Surf-Segment-129_S4, internal, instance=Airfoil-1
 537, 785
*Surface, type=ELEMENT, name=Surf-Segment-129
_Surf-Segment-129_S4, S4
*Elset, elset=_Surf-Segment-130_S4, internal, instance=Airfoil-1
 539, 786
*Surface, type=ELEMENT, name=Surf-Segment-130
_Surf-Segment-130_S4, S4
*Elset, elset=_Surf-Segment-131_S4, internal, instance=Airfoil-1
 727, 728
*Surface, type=ELEMENT, name=Surf-Segment-131
_Surf-Segment-131_S4, S4
*Elset, elset=_Surf-Segment-132_S2, internal, instance=Airfoil-1
 788, 922
*Surface, type=ELEMENT, name=Surf-Segment-132
_Surf-Segment-132_S2, S2
*Elset, elset=_Surf-Segment-133_S4, internal, instance=Airfoil-1
 40,
*Elset, elset=_Surf-Segment-133_S2, internal, instance=Airfoil-1
 789,
*Surface, type=ELEMENT, name=Surf-Segment-133
_Surf-Segment-133_S4, S4
_Surf-Segment-133_S2, S2
*Elset, elset=_Surf-Segment-134_S4, internal, instance=Airfoil-1
 39, 41
*Surface, type=ELEMENT, name=Surf-Segment-134
_Surf-Segment-134_S4, S4
*Elset, elset=_Surf-Segment-135_S4, internal, instance=Airfoil-1
 42,
*Elset, elset=_Surf-Segment-135_S2, internal, instance=Airfoil-1
 836,
*Surface, type=ELEMENT, name=Surf-Segment-135
_Surf-Segment-135_S4, S4
_Surf-Segment-135_S2, S2
*Elset, elset=_Surf-Segment-136_S2, internal, instance=Airfoil-1
 791, 906
*Surface, type=ELEMENT, name=Surf-Segment-136
_Surf-Segment-136_S2, S2
*Elset, elset=_Surf-Segment-137_S2, internal, instance=Airfoil-1
 45,
*Elset, elset=_Surf-Segment-137_S3, internal, instance=Airfoil-1
 46,
*Surface, type=ELEMENT, name=Surf-Segment-137
_Surf-Segment-137_S2, S2
_Surf-Segment-137_S3, S3
*Elset, elset=_Surf-Segment-138_S4, internal, instance=Airfoil-1
 344,
*Elset, elset=_Surf-Segment-138_S2, internal, instance=Airfoil-1
 792,
*Surface, type=ELEMENT, name=Surf-Segment-138
_Surf-Segment-138_S4, S4
_Surf-Segment-138_S2, S2
*Elset, elset=_Surf-Segment-139_S4, internal, instance=Airfoil-1
 337,
*Elset, elset=_Surf-Segment-139_S2, internal, instance=Airfoil-1
 793,
*Surface, type=ELEMENT, name=Surf-Segment-139
_Surf-Segment-139_S4, S4
_Surf-Segment-139_S2, S2
*Elset, elset=_Surf-Segment-140_S4, internal, instance=Airfoil-1
 331,
*Elset, elset=_Surf-Segment-140_S1, internal, instance=Airfoil-1
 794,
*Surface, type=ELEMENT, name=Surf-Segment-140
_Surf-Segment-140_S4, S4
_Surf-Segment-140_S1, S1
*Elset, elset=_Surf-Segment-141_S1, internal, instance=Airfoil-1
 326, 795
*Surface, type=ELEMENT, name=Surf-Segment-141
_Surf-Segment-141_S1, S1
*Elset, elset=_Surf-Segment-142_S1, internal, instance=Airfoil-1
 319, 796
*Surface, type=ELEMENT, name=Surf-Segment-142
_Surf-Segment-142_S1, S1
*Elset, elset=_Surf-Segment-143_S1, internal, instance=Airfoil-1
 313, 797
*Surface, type=ELEMENT, name=Surf-Segment-143
_Surf-Segment-143_S1, S1
*Elset, elset=_Surf-Segment-144_S1, internal, instance=Airfoil-1
 307, 798
*Surface, type=ELEMENT, name=Surf-Segment-144
_Surf-Segment-144_S1, S1
*Elset, elset=_Surf-Segment-145_S1, internal, instance=Airfoil-1
 300, 301
*Surface, type=ELEMENT, name=Surf-Segment-145
_Surf-Segment-145_S1, S1
*Elset, elset=_Surf-Segment-146_S1, internal, instance=Airfoil-1
 292, 293
*Surface, type=ELEMENT, name=Surf-Segment-146
_Surf-Segment-146_S1, S1
*Elset, elset=_Surf-Segment-147_S1, internal, instance=Airfoil-1
 280, 586
*Surface, type=ELEMENT, name=Surf-Segment-147
_Surf-Segment-147_S1, S1
*Elset, elset=_Surf-Segment-148_S1, internal, instance=Airfoil-1
 279,
*Elset, elset=_Surf-Segment-148_S3, internal, instance=Airfoil-1
 281,
*Surface, type=ELEMENT, name=Surf-Segment-148
_Surf-Segment-148_S1, S1
_Surf-Segment-148_S3, S3
*Elset, elset=_Surf-Segment-149_S3, internal, instance=Airfoil-1
 282, 923
*Surface, type=ELEMENT, name=Surf-Segment-149
_Surf-Segment-149_S3, S3
*Elset, elset=_Surf-Segment-150_S3, internal, instance=Airfoil-1
 545, 548
*Surface, type=ELEMENT, name=Surf-Segment-150
_Surf-Segment-150_S3, S3
*Elset, elset=_Surf-Segment-151_S3, internal, instance=Airfoil-1
 550, 908
*Surface, type=ELEMENT, name=Surf-Segment-151
_Surf-Segment-151_S3, S3
*Elset, elset=_Surf-Segment-152_S3, internal, instance=Airfoil-1
 262, 263
*Surface, type=ELEMENT, name=Surf-Segment-152
_Surf-Segment-152_S3, S3
*Elset, elset=_Surf-Segment-153_S3, internal, instance=Airfoil-1
 588, 589
*Surface, type=ELEMENT, name=Surf-Segment-153
_Surf-Segment-153_S3, S3
*Elset, elset=_Surf-Segment-154_S3, internal, instance=Airfoil-1
 253, 590
*Surface, type=ELEMENT, name=Surf-Segment-154
_Surf-Segment-154_S3, S3
*Elset, elset=_Surf-Segment-155_S1, internal, instance=Airfoil-1
 247, 248
*Surface, type=ELEMENT, name=Surf-Segment-155
_Surf-Segment-155_S1, S1
*Elset, elset=_Surf-Segment-156_S3, internal, instance=Airfoil-1
 242, 591
*Surface, type=ELEMENT, name=Surf-Segment-156
_Surf-Segment-156_S3, S3
*Elset, elset=_Surf-Segment-157_S3, internal, instance=Airfoil-1
 592,
*Elset, elset=_Surf-Segment-157_S1, internal, instance=Airfoil-1
 900,
*Surface, type=ELEMENT, name=Surf-Segment-157
_Surf-Segment-157_S3, S3
_Surf-Segment-157_S1, S1
*Elset, elset=_Surf-Segment-158_S1, internal, instance=Airfoil-1
 232,
*Elset, elset=_Surf-Segment-158_S3, internal, instance=Airfoil-1
 593,
*Surface, type=ELEMENT, name=Surf-Segment-158
_Surf-Segment-158_S1, S1
_Surf-Segment-158_S3, S3
*Elset, elset=_Surf-Segment-159_S3, internal, instance=Airfoil-1
 594,
*Elset, elset=_Surf-Segment-159_S1, internal, instance=Airfoil-1
 915,
*Surface, type=ELEMENT, name=Surf-Segment-159
_Surf-Segment-159_S3, S3
_Surf-Segment-159_S1, S1
*Elset, elset=_Surf-Segment-160_S3, internal, instance=Airfoil-1
 220,
*Elset, elset=_Surf-Segment-160_S1, internal, instance=Airfoil-1
 800,
*Surface, type=ELEMENT, name=Surf-Segment-160
_Surf-Segment-160_S3, S3
_Surf-Segment-160_S1, S1
*Elset, elset=_Surf-Segment-161_S3, internal, instance=Airfoil-1
 596,
*Elset, elset=_Surf-Segment-161_S1, internal, instance=Airfoil-1
 945,
*Surface, type=ELEMENT, name=Surf-Segment-161
_Surf-Segment-161_S3, S3
_Surf-Segment-161_S1, S1
*Elset, elset=_Surf-Segment-162_S3, internal, instance=Airfoil-1
 801, 933
*Surface, type=ELEMENT, name=Surf-Segment-162
_Surf-Segment-162_S3, S3
*Elset, elset=_Surf-Segment-163_S3, internal, instance=Airfoil-1
 553, 802
*Surface, type=ELEMENT, name=Surf-Segment-163
_Surf-Segment-163_S3, S3
*Elset, elset=_Surf-Segment-164_S1, internal, instance=Airfoil-1
 210,
*Elset, elset=_Surf-Segment-164_S3, internal, instance=Airfoil-1
 803,
*Surface, type=ELEMENT, name=Surf-Segment-164
_Surf-Segment-164_S1, S1
_Surf-Segment-164_S3, S3
*Elset, elset=_Surf-Segment-165_S1, internal, instance=Airfoil-1
 204,
*Elset, elset=_Surf-Segment-165_S3, internal, instance=Airfoil-1
 919,
*Surface, type=ELEMENT, name=Surf-Segment-165
_Surf-Segment-165_S1, S1
_Surf-Segment-165_S3, S3
*Elset, elset=_Surf-Segment-166_S1, internal, instance=Airfoil-1
 554,
*Elset, elset=_Surf-Segment-166_S3, internal, instance=Airfoil-1
 935,
*Surface, type=ELEMENT, name=Surf-Segment-166
_Surf-Segment-166_S1, S1
_Surf-Segment-166_S3, S3
*Elset, elset=_Surf-Segment-167_S3, internal, instance=Airfoil-1
 198,
*Elset, elset=_Surf-Segment-167_S1, internal, instance=Airfoil-1
 602,
*Surface, type=ELEMENT, name=Surf-Segment-167
_Surf-Segment-167_S3, S3
_Surf-Segment-167_S1, S1
*Elset, elset=_Surf-Segment-168_S1, internal, instance=Airfoil-1
 199, 804
*Surface, type=ELEMENT, name=Surf-Segment-168
_Surf-Segment-168_S1, S1
*Elset, elset=_Surf-Segment-169_S1, internal, instance=Airfoil-1
 185, 805
*Surface, type=ELEMENT, name=Surf-Segment-169
_Surf-Segment-169_S1, S1
*Elset, elset=_Surf-Segment-170_S1, internal, instance=Airfoil-1
 187, 806
*Surface, type=ELEMENT, name=Surf-Segment-170
_Surf-Segment-170_S1, S1
*Elset, elset=_Surf-Segment-171_S1, internal, instance=Airfoil-1
 556, 807
*Surface, type=ELEMENT, name=Surf-Segment-171
_Surf-Segment-171_S1, S1
*Elset, elset=_Surf-Segment-172_S3, internal, instance=Airfoil-1
 560,
*Elset, elset=_Surf-Segment-172_S1, internal, instance=Airfoil-1
 892,
*Surface, type=ELEMENT, name=Surf-Segment-172
_Surf-Segment-172_S3, S3
_Surf-Segment-172_S1, S1
*Elset, elset=_Surf-Segment-173_S3, internal, instance=Airfoil-1
 562,
*Elset, elset=_Surf-Segment-173_S1, internal, instance=Airfoil-1
 886,
*Surface, type=ELEMENT, name=Surf-Segment-173
_Surf-Segment-173_S3, S3
_Surf-Segment-173_S1, S1
*Elset, elset=_Surf-Segment-174_S3, internal, instance=Airfoil-1
 564,
*Elset, elset=_Surf-Segment-174_S1, internal, instance=Airfoil-1
 880,
*Surface, type=ELEMENT, name=Surf-Segment-174
_Surf-Segment-174_S3, S3
_Surf-Segment-174_S1, S1
*Elset, elset=_Surf-Segment-175_S2, internal, instance=Airfoil-1
 566,
*Elset, elset=_Surf-Segment-175_S4, internal, instance=Airfoil-1
 877,
*Surface, type=ELEMENT, name=Surf-Segment-175
_Surf-Segment-175_S2, S2
_Surf-Segment-175_S4, S4
*Elset, elset=_Surf-Segment-176_S2, internal, instance=Airfoil-1
 569,
*Elset, elset=_Surf-Segment-176_S4, internal, instance=Airfoil-1
 870,
*Surface, type=ELEMENT, name=Surf-Segment-176
_Surf-Segment-176_S2, S2
_Surf-Segment-176_S4, S4
*Elset, elset=_Surf-Segment-177_S2, internal, instance=Airfoil-1
 571,
*Elset, elset=_Surf-Segment-177_S4, internal, instance=Airfoil-1
 869,
*Surface, type=ELEMENT, name=Surf-Segment-177
_Surf-Segment-177_S2, S2
_Surf-Segment-177_S4, S4
*Elset, elset=_Surf-Segment-178_S4, internal, instance=Airfoil-1
 573,
*Elset, elset=_Surf-Segment-178_S1, internal, instance=Airfoil-1
 808,
*Surface, type=ELEMENT, name=Surf-Segment-178
_Surf-Segment-178_S4, S4
_Surf-Segment-178_S1, S1
*Elset, elset=_Surf-Segment-179_S3, internal, instance=Airfoil-1
  10, 809
*Surface, type=ELEMENT, name=Surf-Segment-179
_Surf-Segment-179_S3, S3
*Elset, elset=_Surf-Segment-180_S3, internal, instance=Airfoil-1
 575, 810
*Surface, type=ELEMENT, name=Surf-Segment-180
_Surf-Segment-180_S3, S3
*Elset, elset=_Surf-Segment-181_S1, internal, instance=Airfoil-1
 195,
*Elset, elset=_Surf-Segment-181_S3, internal, instance=Airfoil-1
 875,
*Surface, type=ELEMENT, name=Surf-Segment-181
_Surf-Segment-181_S1, S1
_Surf-Segment-181_S3, S3
*Elset, elset=_Surf-Segment-182_S4, internal, instance=Airfoil-1
 194, 730
*Surface, type=ELEMENT, name=Surf-Segment-182
_Surf-Segment-182_S4, S4
*Elset, elset=_Surf-Segment-183_S1, internal, instance=Airfoil-1
 193,
*Elset, elset=_Surf-Segment-183_S3, internal, instance=Airfoil-1
 626,
*Surface, type=ELEMENT, name=Surf-Segment-183
_Surf-Segment-183_S1, S1
_Surf-Segment-183_S3, S3
*Elset, elset=_Surf-Segment-184_S1, internal, instance=Airfoil-1
 192,
*Elset, elset=_Surf-Segment-184_S3, internal, instance=Airfoil-1
 627,
*Surface, type=ELEMENT, name=Surf-Segment-184
_Surf-Segment-184_S1, S1
_Surf-Segment-184_S3, S3
*Elset, elset=_Surf-Segment-185_S3, internal, instance=Airfoil-1
 190, 191
*Surface, type=ELEMENT, name=Surf-Segment-185
_Surf-Segment-185_S3, S3
*Elset, elset=_Surf-Segment-186_S3, internal, instance=Airfoil-1
 168,
*Elset, elset=_Surf-Segment-186_S1, internal, instance=Airfoil-1
 189,
*Surface, type=ELEMENT, name=Surf-Segment-186
_Surf-Segment-186_S3, S3
_Surf-Segment-186_S1, S1
*Elset, elset=_Surf-Segment-187_S3, internal, instance=Airfoil-1
 166,
*Elset, elset=_Surf-Segment-187_S1, internal, instance=Airfoil-1
 167,
*Surface, type=ELEMENT, name=Surf-Segment-187
_Surf-Segment-187_S3, S3
_Surf-Segment-187_S1, S1
*Elset, elset=_Surf-Segment-188_S2, internal, instance=Airfoil-1
 13,
*Elset, elset=_Surf-Segment-188_S1, internal, instance=Airfoil-1
 165,
*Surface, type=ELEMENT, name=Surf-Segment-188
_Surf-Segment-188_S2, S2
_Surf-Segment-188_S1, S1
*Elset, elset=_Surf-Segment-189_S2, internal, instance=Airfoil-1
 13,
*Elset, elset=_Surf-Segment-189_S1, internal, instance=Airfoil-1
 165,
*Surface, type=ELEMENT, name=Surf-Segment-189
_Surf-Segment-189_S2, S2
_Surf-Segment-189_S1, S1
*Elset, elset=_Surf-Segment-190_S3, internal, instance=Airfoil-1
 13,
*Surface, type=ELEMENT, name=Surf-Segment-190
_Surf-Segment-190_S3, S3
*Elset, elset=_Surf-Segment-191_S4, internal, instance=Airfoil-1
 164,
*Surface, type=ELEMENT, name=Surf-Segment-191
_Surf-Segment-191_S4, S4
*End Assembly
** 
** MATERIALS
** 
*Material, name=PLA
*Density
1240.,
*Elastic
 2.5e+09, 0.3
** 
** BOUNDARY CONDITIONS
** 
** Name: BC-Hole1 Type: Displacement/Rotation
*Boundary
_PickedSet7, 1, 1
_PickedSet7, 2, 2
_PickedSet7, 6, 6
** Name: BC-Hole2 Type: Displacement/Rotation
*Boundary
_PickedSet8, 1, 1
_PickedSet8, 2, 2
_PickedSet8, 6, 6
** ----------------------------------------------------------------
** 
** STEP: Step-1
** 
*Step, name=Step-1, nlgeom=NO
Step statico generale per analisi quasi-statica.
*Static
1., 1., 1e-05, 1.
** 
** LOADS
** 
** Name: Load-Segment-0   Type: Pressure
*Dsload
Surf-Segment-0, P, 0.0113007
** Name: Load-Segment-1   Type: Pressure
*Dsload
Surf-Segment-1, P, 0.0257411
** Name: Load-Segment-2   Type: Pressure
*Dsload
Surf-Segment-2, P, 0.00542873
** Name: Load-Segment-3   Type: Pressure
*Dsload
Surf-Segment-3, P, 4.59599e-05
** Name: Load-Segment-4   Type: Pressure
*Dsload
Surf-Segment-4, P, 0.0283646
** Name: Load-Segment-5   Type: Pressure
*Dsload
Surf-Segment-5, P, 0.0543419
** Name: Load-Segment-6   Type: Pressure
*Dsload
Surf-Segment-6, P, 0.0791839
** Name: Load-Segment-7   Type: Pressure
*Dsload
Surf-Segment-7, P, 0.103205
** Name: Load-Segment-8   Type: Pressure
*Dsload
Surf-Segment-8, P, 0.126172
** Name: Load-Segment-9   Type: Pressure
*Dsload
Surf-Segment-9, P, 0.147993
** Name: Load-Segment-10   Type: Pressure
*Dsload
Surf-Segment-10, P, 0.168579
** Name: Load-Segment-11   Type: Pressure
*Dsload
Surf-Segment-11, P, 0.187654
** Name: Load-Segment-12   Type: Pressure
*Dsload
Surf-Segment-12, P, 0.204715
** Name: Load-Segment-13   Type: Pressure
*Dsload
Surf-Segment-13, P, 0.219453
** Name: Load-Segment-14   Type: Pressure
*Dsload
Surf-Segment-14, P, 0.231764
** Name: Load-Segment-15   Type: Pressure
*Dsload
Surf-Segment-15, P, 0.241088
** Name: Load-Segment-16   Type: Pressure
*Dsload
Surf-Segment-16, P, 0.246682
** Name: Load-Segment-17   Type: Pressure
*Dsload
Surf-Segment-17, P, 0.248362
** Name: Load-Segment-18   Type: Pressure
*Dsload
Surf-Segment-18, P, 0.246674
** Name: Load-Segment-19   Type: Pressure
*Dsload
Surf-Segment-19, P, 0.242934
** Name: Load-Segment-20   Type: Pressure
*Dsload
Surf-Segment-20, P, 0.239697
** Name: Load-Segment-21   Type: Pressure
*Dsload
Surf-Segment-21, P, 0.238445
** Name: Load-Segment-22   Type: Pressure
*Dsload
Surf-Segment-22, P, 0.238863
** Name: Load-Segment-23   Type: Pressure
*Dsload
Surf-Segment-23, P, 0.240901
** Name: Load-Segment-24   Type: Pressure
*Dsload
Surf-Segment-24, P, 0.244507
** Name: Load-Segment-25   Type: Pressure
*Dsload
Surf-Segment-25, P, 0.249405
** Name: Load-Segment-26   Type: Pressure
*Dsload
Surf-Segment-26, P, 0.255825
** Name: Load-Segment-27   Type: Pressure
*Dsload
Surf-Segment-27, P, 0.263741
** Name: Load-Segment-28   Type: Pressure
*Dsload
Surf-Segment-28, P, 0.272544
** Name: Load-Segment-29   Type: Pressure
*Dsload
Surf-Segment-29, P, 0.282185
** Name: Load-Segment-30   Type: Pressure
*Dsload
Surf-Segment-30, P, 0.292351
** Name: Load-Segment-31   Type: Pressure
*Dsload
Surf-Segment-31, P, 0.302631
** Name: Load-Segment-32   Type: Pressure
*Dsload
Surf-Segment-32, P, 0.313014
** Name: Load-Segment-33   Type: Pressure
*Dsload
Surf-Segment-33, P, 0.323443
** Name: Load-Segment-34   Type: Pressure
*Dsload
Surf-Segment-34, P, 0.334014
** Name: Load-Segment-35   Type: Pressure
*Dsload
Surf-Segment-35, P, 0.344722
** Name: Load-Segment-36   Type: Pressure
*Dsload
Surf-Segment-36, P, 0.35546
** Name: Load-Segment-37   Type: Pressure
*Dsload
Surf-Segment-37, P, 0.366113
** Name: Load-Segment-38   Type: Pressure
*Dsload
Surf-Segment-38, P, 0.376507
** Name: Load-Segment-39   Type: Pressure
*Dsload
Surf-Segment-39, P, 0.386405
** Name: Load-Segment-40   Type: Pressure
*Dsload
Surf-Segment-40, P, 0.395722
** Name: Load-Segment-41   Type: Pressure
*Dsload
Surf-Segment-41, P, 0.404357
** Name: Load-Segment-42   Type: Pressure
*Dsload
Surf-Segment-42, P, 0.412398
** Name: Load-Segment-43   Type: Pressure
*Dsload
Surf-Segment-43, P, 0.419998
** Name: Load-Segment-44   Type: Pressure
*Dsload
Surf-Segment-44, P, 0.427266
** Name: Load-Segment-45   Type: Pressure
*Dsload
Surf-Segment-45, P, 0.434475
** Name: Load-Segment-46   Type: Pressure
*Dsload
Surf-Segment-46, P, 0.441766
** Name: Load-Segment-47   Type: Pressure
*Dsload
Surf-Segment-47, P, 0.449754
** Name: Load-Segment-48   Type: Pressure
*Dsload
Surf-Segment-48, P, 0.458897
** Name: Load-Segment-49   Type: Pressure
*Dsload
Surf-Segment-49, P, 0.469998
** Name: Load-Segment-50   Type: Pressure
*Dsload
Surf-Segment-50, P, 0.48354
** Name: Load-Segment-51   Type: Pressure
*Dsload
Surf-Segment-51, P, 0.499505
** Name: Load-Segment-52   Type: Pressure
*Dsload
Surf-Segment-52, P, 0.517955
** Name: Load-Segment-53   Type: Pressure
*Dsload
Surf-Segment-53, P, 0.538438
** Name: Load-Segment-54   Type: Pressure
*Dsload
Surf-Segment-54, P, 0.560734
** Name: Load-Segment-55   Type: Pressure
*Dsload
Surf-Segment-55, P, 0.584141
** Name: Load-Segment-56   Type: Pressure
*Dsload
Surf-Segment-56, P, 0.60764
** Name: Load-Segment-57   Type: Pressure
*Dsload
Surf-Segment-57, P, 0.630726
** Name: Load-Segment-58   Type: Pressure
*Dsload
Surf-Segment-58, P, 0.65127
** Name: Load-Segment-59   Type: Pressure
*Dsload
Surf-Segment-59, P, 0.668423
** Name: Load-Segment-60   Type: Pressure
*Dsload
Surf-Segment-60, P, 0.681069
** Name: Load-Segment-61   Type: Pressure
*Dsload
Surf-Segment-61, P, 0.688442
** Name: Load-Segment-62   Type: Pressure
*Dsload
Surf-Segment-62, P, 0.69188
** Name: Load-Segment-63   Type: Pressure
*Dsload
Surf-Segment-63, P, 0.691966
** Name: Load-Segment-64   Type: Pressure
*Dsload
Surf-Segment-64, P, 0.690299
** Name: Load-Segment-65   Type: Pressure
*Dsload
Surf-Segment-65, P, 0.688019
** Name: Load-Segment-66   Type: Pressure
*Dsload
Surf-Segment-66, P, 0.686076
** Name: Load-Segment-67   Type: Pressure
*Dsload
Surf-Segment-67, P, 0.685222
** Name: Load-Segment-68   Type: Pressure
*Dsload
Surf-Segment-68, P, 0.68744
** Name: Load-Segment-69   Type: Pressure
*Dsload
Surf-Segment-69, P, 0.694173
** Name: Load-Segment-70   Type: Pressure
*Dsload
Surf-Segment-70, P, 0.705513
** Name: Load-Segment-71   Type: Pressure
*Dsload
Surf-Segment-71, P, 0.723846
** Name: Load-Segment-72   Type: Pressure
*Dsload
Surf-Segment-72, P, 0.748443
** Name: Load-Segment-73   Type: Pressure
*Dsload
Surf-Segment-73, P, 0.776565
** Name: Load-Segment-74   Type: Pressure
*Dsload
Surf-Segment-74, P, 0.80748
** Name: Load-Segment-75   Type: Pressure
*Dsload
Surf-Segment-75, P, 0.839723
** Name: Load-Segment-76   Type: Pressure
*Dsload
Surf-Segment-76, P, 0.872001
** Name: Load-Segment-77   Type: Pressure
*Dsload
Surf-Segment-77, P, 0.903682
** Name: Load-Segment-78   Type: Pressure
*Dsload
Surf-Segment-78, P, 0.934226
** Name: Load-Segment-79   Type: Pressure
*Dsload
Surf-Segment-79, P, 0.963195
** Name: Load-Segment-80   Type: Pressure
*Dsload
Surf-Segment-80, P, 0.990282
** Name: Load-Segment-81   Type: Pressure
*Dsload
Surf-Segment-81, P, 1.01515
** Name: Load-Segment-82   Type: Pressure
*Dsload
Surf-Segment-82, P, 1.03742
** Name: Load-Segment-83   Type: Pressure
*Dsload
Surf-Segment-83, P, 1.05642
** Name: Load-Segment-84   Type: Pressure
*Dsload
Surf-Segment-84, P, 1.07135
** Name: Load-Segment-85   Type: Pressure
*Dsload
Surf-Segment-85, P, 1.0818
** Name: Load-Segment-86   Type: Pressure
*Dsload
Surf-Segment-86, P, 1.08782
** Name: Load-Segment-87   Type: Pressure
*Dsload
Surf-Segment-87, P, 1.0897
** Name: Load-Segment-88   Type: Pressure
*Dsload
Surf-Segment-88, P, 1.08696
** Name: Load-Segment-89   Type: Pressure
*Dsload
Surf-Segment-89, P, 1.077
** Name: Load-Segment-90   Type: Pressure
*Dsload
Surf-Segment-90, P, 1.05368
** Name: Load-Segment-91   Type: Pressure
*Dsload
Surf-Segment-91, P, 1.01092
** Name: Load-Segment-92   Type: Pressure
*Dsload
Surf-Segment-92, P, 0.941424
** Name: Load-Segment-93   Type: Pressure
*Dsload
Surf-Segment-93, P, 0.812783
** Name: Load-Segment-94   Type: Pressure
*Dsload
Surf-Segment-94, P, 0.362607
** Name: Load-Segment-95   Type: Pressure
*Dsload
Surf-Segment-95, P, -0.00170994
** Name: Load-Segment-96   Type: Pressure
*Dsload
Surf-Segment-96, P, 0.527994
** Name: Load-Segment-97   Type: Pressure
*Dsload
Surf-Segment-97, P, 1.01322
** Name: Load-Segment-98   Type: Pressure
*Dsload
Surf-Segment-98, P, 0.872481
** Name: Load-Segment-99   Type: Pressure
*Dsload
Surf-Segment-99, P, 0.696374
** Name: Load-Segment-100   Type: Pressure
*Dsload
Surf-Segment-100, P, 0.56034
** Name: Load-Segment-101   Type: Pressure
*Dsload
Surf-Segment-101, P, 0.452058
** Name: Load-Segment-102   Type: Pressure
*Dsload
Surf-Segment-102, P, 0.369446
** Name: Load-Segment-103   Type: Pressure
*Dsload
Surf-Segment-103, P, 0.314105
** Name: Load-Segment-104   Type: Pressure
*Dsload
Surf-Segment-104, P, 0.27753
** Name: Load-Segment-105   Type: Pressure
*Dsload
Surf-Segment-105, P, 0.251544
** Name: Load-Segment-106   Type: Pressure
*Dsload
Surf-Segment-106, P, 0.232483
** Name: Load-Segment-107   Type: Pressure
*Dsload
Surf-Segment-107, P, 0.217934
** Name: Load-Segment-108   Type: Pressure
*Dsload
Surf-Segment-108, P, 0.206591
** Name: Load-Segment-109   Type: Pressure
*Dsload
Surf-Segment-109, P, 0.197417
** Name: Load-Segment-110   Type: Pressure
*Dsload
Surf-Segment-110, P, 0.189915
** Name: Load-Segment-111   Type: Pressure
*Dsload
Surf-Segment-111, P, 0.183781
** Name: Load-Segment-112   Type: Pressure
*Dsload
Surf-Segment-112, P, 0.178688
** Name: Load-Segment-113   Type: Pressure
*Dsload
Surf-Segment-113, P, 0.174275
** Name: Load-Segment-114   Type: Pressure
*Dsload
Surf-Segment-114, P, 0.170289
** Name: Load-Segment-115   Type: Pressure
*Dsload
Surf-Segment-115, P, 0.166729
** Name: Load-Segment-116   Type: Pressure
*Dsload
Surf-Segment-116, P, 0.163657
** Name: Load-Segment-117   Type: Pressure
*Dsload
Surf-Segment-117, P, 0.161084
** Name: Load-Segment-118   Type: Pressure
*Dsload
Surf-Segment-118, P, 0.159128
** Name: Load-Segment-119   Type: Pressure
*Dsload
Surf-Segment-119, P, 0.158324
** Name: Load-Segment-120   Type: Pressure
*Dsload
Surf-Segment-120, P, 0.158857
** Name: Load-Segment-121   Type: Pressure
*Dsload
Surf-Segment-121, P, 0.160487
** Name: Load-Segment-122   Type: Pressure
*Dsload
Surf-Segment-122, P, 0.163264
** Name: Load-Segment-123   Type: Pressure
*Dsload
Surf-Segment-123, P, 0.166825
** Name: Load-Segment-124   Type: Pressure
*Dsload
Surf-Segment-124, P, 0.170836
** Name: Load-Segment-125   Type: Pressure
*Dsload
Surf-Segment-125, P, 0.175236
** Name: Load-Segment-126   Type: Pressure
*Dsload
Surf-Segment-126, P, 0.179793
** Name: Load-Segment-127   Type: Pressure
*Dsload
Surf-Segment-127, P, 0.184242
** Name: Load-Segment-128   Type: Pressure
*Dsload
Surf-Segment-128, P, 0.188262
** Name: Load-Segment-129   Type: Pressure
*Dsload
Surf-Segment-129, P, 0.191633
** Name: Load-Segment-130   Type: Pressure
*Dsload
Surf-Segment-130, P, 0.193816
** Name: Load-Segment-131   Type: Pressure
*Dsload
Surf-Segment-131, P, 0.194865
** Name: Load-Segment-132   Type: Pressure
*Dsload
Surf-Segment-132, P, 0.194763
** Name: Load-Segment-133   Type: Pressure
*Dsload
Surf-Segment-133, P, 0.193728
** Name: Load-Segment-134   Type: Pressure
*Dsload
Surf-Segment-134, P, 0.192368
** Name: Load-Segment-135   Type: Pressure
*Dsload
Surf-Segment-135, P, 0.190765
** Name: Load-Segment-136   Type: Pressure
*Dsload
Surf-Segment-136, P, 0.189181
** Name: Load-Segment-137   Type: Pressure
*Dsload
Surf-Segment-137, P, 0.187711
** Name: Load-Segment-138   Type: Pressure
*Dsload
Surf-Segment-138, P, 0.186452
** Name: Load-Segment-139   Type: Pressure
*Dsload
Surf-Segment-139, P, 0.185584
** Name: Load-Segment-140   Type: Pressure
*Dsload
Surf-Segment-140, P, 0.185172
** Name: Load-Segment-141   Type: Pressure
*Dsload
Surf-Segment-141, P, 0.185349
** Name: Load-Segment-142   Type: Pressure
*Dsload
Surf-Segment-142, P, 0.186087
** Name: Load-Segment-143   Type: Pressure
*Dsload
Surf-Segment-143, P, 0.1872
** Name: Load-Segment-144   Type: Pressure
*Dsload
Surf-Segment-144, P, 0.188582
** Name: Load-Segment-145   Type: Pressure
*Dsload
Surf-Segment-145, P, 0.189936
** Name: Load-Segment-146   Type: Pressure
*Dsload
Surf-Segment-146, P, 0.191214
** Name: Load-Segment-147   Type: Pressure
*Dsload
Surf-Segment-147, P, 0.192383
** Name: Load-Segment-148   Type: Pressure
*Dsload
Surf-Segment-148, P, 0.193422
** Name: Load-Segment-149   Type: Pressure
*Dsload
Surf-Segment-149, P, 0.194315
** Name: Load-Segment-150   Type: Pressure
*Dsload
Surf-Segment-150, P, 0.194983
** Name: Load-Segment-151   Type: Pressure
*Dsload
Surf-Segment-151, P, 0.195337
** Name: Load-Segment-152   Type: Pressure
*Dsload
Surf-Segment-152, P, 0.195375
** Name: Load-Segment-153   Type: Pressure
*Dsload
Surf-Segment-153, P, 0.195191
** Name: Load-Segment-154   Type: Pressure
*Dsload
Surf-Segment-154, P, 0.194835
** Name: Load-Segment-155   Type: Pressure
*Dsload
Surf-Segment-155, P, 0.19439
** Name: Load-Segment-156   Type: Pressure
*Dsload
Surf-Segment-156, P, 0.193806
** Name: Load-Segment-157   Type: Pressure
*Dsload
Surf-Segment-157, P, 0.193086
** Name: Load-Segment-158   Type: Pressure
*Dsload
Surf-Segment-158, P, 0.192248
** Name: Load-Segment-159   Type: Pressure
*Dsload
Surf-Segment-159, P, 0.191286
** Name: Load-Segment-160   Type: Pressure
*Dsload
Surf-Segment-160, P, 0.190232
** Name: Load-Segment-161   Type: Pressure
*Dsload
Surf-Segment-161, P, 0.1891
** Name: Load-Segment-162   Type: Pressure
*Dsload
Surf-Segment-162, P, 0.187947
** Name: Load-Segment-163   Type: Pressure
*Dsload
Surf-Segment-163, P, 0.186989
** Name: Load-Segment-164   Type: Pressure
*Dsload
Surf-Segment-164, P, 0.186444
** Name: Load-Segment-165   Type: Pressure
*Dsload
Surf-Segment-165, P, 0.186398
** Name: Load-Segment-166   Type: Pressure
*Dsload
Surf-Segment-166, P, 0.18717
** Name: Load-Segment-167   Type: Pressure
*Dsload
Surf-Segment-167, P, 0.188769
** Name: Load-Segment-168   Type: Pressure
*Dsload
Surf-Segment-168, P, 0.190996
** Name: Load-Segment-169   Type: Pressure
*Dsload
Surf-Segment-169, P, 0.194463
** Name: Load-Segment-170   Type: Pressure
*Dsload
Surf-Segment-170, P, 0.199499
** Name: Load-Segment-171   Type: Pressure
*Dsload
Surf-Segment-171, P, 0.20572
** Name: Load-Segment-172   Type: Pressure
*Dsload
Surf-Segment-172, P, 0.212507
** Name: Load-Segment-173   Type: Pressure
*Dsload
Surf-Segment-173, P, 0.218347
** Name: Load-Segment-174   Type: Pressure
*Dsload
Surf-Segment-174, P, 0.22209
** Name: Load-Segment-175   Type: Pressure
*Dsload
Surf-Segment-175, P, 0.223659
** Name: Load-Segment-176   Type: Pressure
*Dsload
Surf-Segment-176, P, 0.22327
** Name: Load-Segment-177   Type: Pressure
*Dsload
Surf-Segment-177, P, 0.221311
** Name: Load-Segment-178   Type: Pressure
*Dsload
Surf-Segment-178, P, 0.218
** Name: Load-Segment-179   Type: Pressure
*Dsload
Surf-Segment-179, P, 0.213407
** Name: Load-Segment-180   Type: Pressure
*Dsload
Surf-Segment-180, P, 0.207713
** Name: Load-Segment-181   Type: Pressure
*Dsload
Surf-Segment-181, P, 0.20116
** Name: Load-Segment-182   Type: Pressure
*Dsload
Surf-Segment-182, P, 0.193813
** Name: Load-Segment-183   Type: Pressure
*Dsload
Surf-Segment-183, P, 0.185614
** Name: Load-Segment-184   Type: Pressure
*Dsload
Surf-Segment-184, P, 0.176087
** Name: Load-Segment-185   Type: Pressure
*Dsload
Surf-Segment-185, P, 0.164608
** Name: Load-Segment-186   Type: Pressure
*Dsload
Surf-Segment-186, P, 0.151441
** Name: Load-Segment-187   Type: Pressure
*Dsload
Surf-Segment-187, P, 0.135629
** Name: Load-Segment-188   Type: Pressure
*Dsload
Surf-Segment-188, P, 0.0497941
** Name: Load-Segment-189   Type: Pressure
*Dsload
Surf-Segment-189, P, -0.027126
** Name: Load-Segment-190   Type: Pressure
*Dsload
Surf-Segment-190, P, -0.0119932
** Name: Load-Segment-191   Type: Pressure
*Dsload
Surf-Segment-191, P, 0.00313959
** 
** OUTPUT REQUESTS
** 
*Restart, write, frequency=0
** 
** FIELD OUTPUT: F-Output-1
** 
*Output, field, variable=PRESELECT
** 
** HISTORY OUTPUT: H-Output-1
** 
*Output, history, variable=PRESELECT
*End Step
