*Heading
** Job name: Stiffness_optimization-Job Model name: Model-1
** Generated by: Abaqus/CAE 2024.HF2
*Preprint, echo=NO, model=NO, history=NO, contact=NO
**
** PARTS
**
*Part, name=Airfoil
*End Part
**  
**
** ASSEMBLY
**
*Assembly, name=Assembly
**  
*Instance, name=Airfoil-1, part=Airfoil
*Node
      1,  0.989739835, 0.0020842636
      2,  0.988452852, 0.00309589249
      3,  0.985638022, 0.00343888323
      4,  0.975661576, 0.00305655017
      5,   0.96590513, 0.00520772254
      6,  0.960970163, 0.00600824039
      7,  0.951078176, 0.00747474469
      8,  0.946144581, 0.00828636438
      9,  0.936264098, 0.00982850976
     10,  0.926375151, 0.0113222469
     11,  0.921430528, 0.0120548373
     12,  0.911531627, 0.0134785604
     13,  0.906579554, 0.0141701875
     14,  0.896669626, 0.0155091705
     15,  0.891711414, 0.0161548592
     16,  0.881788492, 0.0173953231
     17,  0.876823723, 0.0179886576
     18,  0.866887569, 0.0191178173
     19,  0.856942892, 0.0201696735
     20,  0.851967812, 0.0206688754
     21,  0.842012942, 0.0216194335
     22,  0.837033451, 0.0220730379
     23,   0.82707119, 0.0229424946
     24,  0.822088599, 0.0233605932
     25,  0.812121212, 0.0241691545
     26,  0.807136536, 0.0245618634
     27,   0.79716593, 0.0253297146
     28,  0.787194073, 0.0260817502
     29,  0.782207847, 0.0264539868
     30,  0.772234976, 0.0271925926
     31,  0.767248392, 0.0275594145
     32,  0.757274926, 0.0282891896
     33,  0.752288043, 0.0286526084
     34,  0.742314219, 0.0293776523
     35,  0.737327218, 0.0297397319
     36,  0.727353334, 0.0304641612
     37,   0.71737957,  0.031190427
     38,  0.712392807,  0.031554874
     39,  0.702419519, 0.0322872624
     40,  0.697432995, 0.0326551199
     41,  0.687460065, 0.0333932415
     42,  0.682473719, 0.0337630287
     43,  0.672483027, 0.0345043205
     44,  0.662474453, 0.0352460258
     45,  0.657470107, 0.0356159881
     46,  0.647461176, 0.0363530479
     47,  0.642456532, 0.0367197096
     48,  0.632446945, 0.0374482051
     49,  0.627442002, 0.0378096029
     50,  0.617431521, 0.0385256149
     51,  0.612425983, 0.0388797894
     52,   0.60241437, 0.0395793915
     53,  0.597408235, 0.0399243794
     54,  0.587395191, 0.0406036489
     55,  0.577381134,  0.041267179
     56,  0.572373629, 0.0415924974
     57,  0.562357843, 0.0422291458
     58,  0.557349443, 0.0425400361
     59,  0.547331691, 0.0431458727
     60,  0.542322338, 0.0434403718
     61,  0.532302558,  0.044011455
     62,  0.527292132, 0.0442875996
     63,  0.517270207, 0.0448199883
     64,  0.507246852, 0.0453244224
     65,  0.502234638,  0.045565594
     66,  0.492209107, 0.0460246652
     67,   0.48719582, 0.0462423898
     68,  0.477168351, 0.0466569364
     69,  0.472154289, 0.0468564816
     70,  0.462125838, 0.0472466275
     71,  0.457111537, 0.0474398248
     72,  0.447083026, 0.0478290617
     73,  0.437055022,  0.048230391
     74,  0.432041347, 0.0484393053
     75,  0.422014892, 0.0488779657
     76,  0.417002052, 0.0491056219
     77,  0.406976521, 0.0495651849
     78,  0.401963592, 0.0497910753
     79,  0.391936779, 0.0502213612
     80,  0.386922717, 0.0504202098
     81,  0.376892835, 0.0507712327
     82,  0.366860449, 0.0510413647
     83,  0.361843407, 0.0511397682
     84,  0.351808161, 0.0512626171
     85,  0.346790195, 0.0512894094
     86,  0.336754203,  0.051279068
     87,  0.331736296, 0.0512441061
     88,   0.32170105, 0.0511200763
     89,  0.316683769, 0.0510331877
     90,  0.306650102, 0.0508151129
     91,  0.296617717, 0.0505452491
     92,  0.291601986, 0.0503936224
     93,  0.281571418, 0.0500624068
     94,  0.276556522,  0.049885001
     95,  0.266527414, 0.0495120026
     96,  0.261513114,  0.049318552
     97,  0.251484871, 0.0489233285
     98,  0.246470869, 0.0487223007
     99,  0.236443341, 0.0483092032
    100,  0.226416737, 0.0478741154
    101,  0.221403912, 0.0476455688
    102,  0.211379588, 0.0471610352
    103,  0.206368208, 0.0469028577
    104,   0.19634746, 0.0463492163
    105,  0.191338271, 0.0460515618
    106,  0.181322828, 0.0454091243
    107,  0.176316828, 0.0450621471
    108,  0.166308939, 0.0443112254
    109,  0.156307653, 0.0434770696
    110,  0.151309952, 0.0430260599
    111,   0.14132145,  0.042050764
    112,  0.136331126, 0.0415243208
    113,  0.126359612,  0.040388491
    114,  0.121378995, 0.0397770107
    115,  0.111429609, 0.0384615622
    116,  0.106461518, 0.0377554931
    117, 0.0965403616, 0.0362417959
    118, 0.0915887281, 0.0354283638
    119, 0.0817090571, 0.0336645953
    120, 0.0718707517, 0.0316834338
    121, 0.0669714957, 0.0305983759
    122, 0.0572232269, 0.0282137729
    123, 0.0523792394, 0.0269039795
    124, 0.0427657366, 0.0240247715
    125,  0.038001895,  0.022446787
    126, 0.0285833068, 0.0189844985
    127, 0.0239322707, 0.0171006843
    128, 0.0147889964, 0.0129679898
    129, 0.0062495782, 0.00772849889
    130, 0.00262797391, 0.00426206086
    131, 0.000409991597, 0.00170716376
    132, -4.32490197e-06, 7.31488035e-05
    133, 0.000798883557, -0.00142506917
    134, 0.00357123581, -0.00343927532
    135, 0.00812808797, -0.0055223587
    136, 0.0177931748, -0.0081432797
    137, 0.0227437504, -0.00894243084
    138, 0.0327040479, -0.0101011293
    139, 0.0376934484, -0.0105976639
    140, 0.0476854593, -0.0114459563
    141, 0.0576913059, -0.0121141206
    142, 0.0626979098, -0.012387746
    143,  0.072716549, -0.0128238257
    144, 0.0777278543, -0.0129910996
    145, 0.0877530202, -0.0132356184
    146, 0.0927664489, -0.0133174872
    147,  0.102794178, -0.0134121077
    148,  0.107808247, -0.0134294471
    149,  0.117836438, -0.0134164086
    150,  0.127864435, -0.0133527974
    151,  0.132878304, -0.0133046964
    152,  0.142905697, -0.0131772691
    153,  0.147919178, -0.0130984867
    154,  0.157945648, -0.0129124792
    155,  0.162958622, -0.0128058577
    156,  0.172983974, -0.0125669222
    157,  0.177996337, -0.0124352314
    158,  0.188020453, -0.0121489484
    159,  0.198043719, -0.011834193
    160,  0.203055039, -0.0116669107
    161,  0.213077024, -0.0113140792
    162,  0.218087718, -0.0111291464
    163,   0.22810851, -0.0107437875
    164,  0.233118638, -0.0105439778
    165,  0.243138358, -0.0101316338
    166,  0.248147979, -0.00991971511
    167,   0.25816679, -0.00948592089
    168,  0.268185139, -0.00904089864
    169,  0.273194134, -0.00881494302
    170,  0.283211917, -0.00835768878
    171,  0.288220704, -0.00812698714
    172,  0.298238158, -0.00766277406
    173,  0.303246856, -0.00742977625
    174,  0.313237339, -0.00696451496
    175,  0.318219155, -0.00673275813
    176,  0.328182876, -0.00627099769
    177,  0.338146776, -0.00581324659
    178,   0.34312883, -0.00558650214
    179,  0.353093177, -0.00513853133
    180,    0.3580755, -0.00491780648
    181,  0.368040472, -0.0044841324
    182,  0.373023152, -0.00427169027
    183,   0.38298893, -0.00385682355
    184,  0.392955333, -0.0034570382
    185,  0.397938788, -0.00326345046
    186,  0.407906175, -0.00288940617
    187,  0.412890136, -0.00270868978
    188,  0.422858387, -0.00235832692
    189,  0.427842677, -0.00218813121
    190,  0.437811583, -0.00185634417
    191,  0.442796141, -0.00169418962
    192,  0.452765495, -0.00137596752
    193,  0.462735027, -0.00106400659
    194,  0.467719853, -0.000909677998
    195,  0.477689534, -0.000602933229
    196,   0.48267439, -0.000449959509
    197,  0.492644101, -0.000143421057
    198,  0.497628927, 1.06986181e-05
    199,   0.50759846, 0.00032199017
    200,  0.517567933, 0.000637124293
    201,  0.522552609, 0.000795430213
    202,  0.532522023, 0.00111198239
    203,    0.5375067, 0.0012696156
    204,  0.547476232, 0.00158206618
    205,  0.552461088, 0.00173627061
    206,  0.562430859, 0.00203910563
    207,  0.567415893, 0.00218712306
    208,  0.577386141, 0.00247482653
    209,  0.587356806, 0.00274937646
    210,  0.592342257, 0.00288095372
    211,  0.602313519, 0.00313117821
    212,  0.607299328, 0.00324920658
    213,  0.617271304, 0.00346960546
    214,  0.622257471, 0.00357135013
    215,  0.632230163, 0.00375649123
    216,  0.642203271, 0.00391894672
    217,  0.647189915, 0.00399300363
    218,  0.657163441, 0.00412974227
    219,  0.662150204, 0.00419357466
    220,  0.672123909, 0.00431505218
    221,  0.677110732, 0.00437385589
    222,  0.687084496, 0.00449047796
    223,  0.692071319, 0.00454946188
    224,  0.702045023, 0.0046716556
    225,  0.712018549, 0.00480328081
    226,  0.717005253, 0.00487425178
    227,  0.726978481, 0.00502828183
    228,  0.731965005, 0.00511108479
    229,  0.741937935, 0.00528467074
    230,  0.746924341, 0.00537388911
    231,  0.756897092, 0.0055536069
    232,  0.766869962, 0.00573009765
    233,  0.771856427, 0.00581528665
    234,  0.781829596, 0.00597587368
    235,  0.786816239, 0.0060497974
    236,  0.796789765, 0.00618121773
    237,  0.801776648, 0.00623724284
    238,   0.81175071, 0.00632624049
    239,  0.821724951, 0.00637965463
    240,  0.826712132, 0.00639150711
    241,  0.836686552, 0.00638297759
    242,  0.841673732, 0.00636160979
    243,  0.851647794, 0.00628217449
    244,  0.856634676, 0.00622312119
    245,  0.866607785, 0.00606387341
    246,  0.871593952, 0.00596260745
    247,  0.881565273, 0.00571471173
    248,  0.891534925, 0.0054062414
    249,  0.896519065, 0.00523054739
    250,  0.906485617, 0.00483933883
    251,  0.911468208, 0.00462460238
    252,  0.921432436, 0.00415927265
    253,   0.92641294, 0.00391218252
    254,  0.936373174, 0.00338048022
    255,  0.946331859, 0.00282085408
    256,  0.951311707, 0.00255551049
    257,  0.961258352, 0.00181053102
    258,  0.966235518, 0.00150661985
    259,  0.976194024, 0.00134616927
    260,  0.985790968, -0.00133102364
    261,  0.988298655, -0.00163529394
    262,  0.989476442, -0.00122512539
    263,  0.989892721, -0.000602686952
    264,   0.99000001, 0.000626783702
    265, 0.0124408389, 0.00678989105
    266, 0.0225677434, 0.00642681867
    267,  0.032023225, 0.00394441234
    268, 0.0449286737, 0.00297289831
    269, 0.0536911115, 0.00325404573
    270, 0.0652247891, 0.0060839057
    271, 0.0764587298, 0.00653216103
    272, 0.0866524726, 0.00551555306
    273, 0.0959082097, 0.00511286315
    274,   0.10548307, 0.00642194273
    275,  0.115586132, 0.00601468282
    276,  0.126349062, 0.00749378512
    277,  0.134889215, 0.00372229307
    278,  0.143061936, 0.00385947106
    279,  0.152834535,   0.00407753
    280,  0.165795624, 0.00425677653
    281,  0.175711244, 0.00458776485
    282,  0.186050102, 0.00539815845
    283,  0.197473511, 0.00664774142
    284,   0.21058166, 0.00926959328
    285,  0.222259954, 0.00303578773
    286,  0.230674833, 0.00363288634
    287,  0.242523849, 0.00661938172
    288,  0.252287924, 0.00728916144
    289,  0.262129724, 0.00681838533
    290,   0.27086404, 0.00537701603
    291,  0.279106289, 0.00392213138
    292,  0.290395498, 0.00540713081
    293,  0.304602414, 0.00721710268
    294,  0.314506203, 0.00784208346
    295,  0.324967533, 0.00562598463
    296,  0.335603207, 0.00661902316
    297,  0.348451823, 0.00330882752
    298,   0.35816589, 0.0042221644
    299,  0.368156165, 0.00489963824
    300,  0.378522933, 0.00613161968
    301,  0.389327765, 0.00703325216
    302,  0.399712175, 0.00657966128
    303,  0.409290463, 0.00609618844
    304,  0.418856114, 0.00597836822
    305,  0.428301752, 0.00657575252
    306,  0.437938422, 0.00680179754
    307,  0.452356577, 0.00289659738
    308,  0.466901422, 0.00441940036
    309,  0.477816641, 0.0070279059
    310,  0.488596052, 0.00462205056
    311,  0.498331875, 0.00462915283
    312,  0.508284748, 0.00487692654
    313,  0.518075109, 0.00496752048
    314,  0.527866542, 0.00528693944
    315,  0.537416935, 0.00567751424
    316,  0.874799132, 0.0138127105
    317,  0.864963114, 0.0147731034
    318,  0.855057299, 0.0156030944
    319,  0.831261754, 0.0147889555
    320,  0.821708381, 0.0148997437
    321,  0.811767399, 0.0152071333
    322,   0.80169034, 0.0155621441
    323,  0.786189377, 0.0143103171
    324,  0.776682675, 0.0141975088
    325,  0.766785145, 0.0143312262
    326,  0.756788611, 0.0144863548
    327,  0.746731162, 0.0146375932
    328,  0.736529469, 0.0145758493
    329,  0.727163017, 0.0131987389
    330,   0.71804601, 0.0134061137
    331,  0.708269536, 0.0143045578
    332,  0.696583271, 0.0146154547
    333,  0.686010659, 0.0130795063
    334,  0.676359951, 0.0125369616
    335,  0.666700959,  0.012931616
    336,   0.65185535, 0.0131995771
    337,  0.641911983, 0.0133072976
    338,  0.631892502, 0.0134080518
    339,  0.621780694,  0.013414938
    340,  0.611768067, 0.0130119128
    341,  0.601177096, 0.0172707327
    342,  0.591227651, 0.0159365591
    343,  0.580838799, 0.0168465767
    344,  0.570635796, 0.0151523622
    345,  0.561227679, 0.0147924544
    346,  0.548078835, 0.0151868789
    347,   0.53679508,  0.015345186
    348,  0.524134457, 0.0130931716
    349,  0.514843404, 0.0144470604
    350,   0.50459218,  0.013668512
    351,  0.494402438, 0.0139932651
    352,  0.485281974, 0.0162605923
    353,  0.471783012,  0.017597504
    354,  0.463747382, 0.0141102728
    355,  0.446927339, 0.0113639161
    356,  0.438183278, 0.0156182023
    357,  0.428207129, 0.0154399555
    358,  0.419215232, 0.0132448468
    359,  0.411539584, 0.0151661271
    360,  0.399871081, 0.0166345835
    361,  0.386504412, 0.0166516174
    362,  0.377090812,  0.014891916
    363,  0.368279576, 0.0135918949
    364,  0.358362138,  0.013400889
    365,  0.348032415, 0.0122720972
    366,   0.33938843,  0.014382232
    367,  0.327349007,  0.014259032
    368,  0.304474682, 0.0124764619
    369,  0.291712046, 0.0145725831
    370,  0.279052049, 0.0116393389
    371,  0.263261288, 0.0167555735
    372,  0.252517909, 0.0144199021
    373,  0.242248952,  0.015179514
    374,  0.232607648, 0.0136852581
    375,  0.212378666, 0.0174261741
    376,  0.198254824, 0.0151847051
    377,  0.187318549, 0.0158894062
    378,  0.178348869,  0.013390501
    379,  0.169191256, 0.0122248111
    380,  0.157804653, 0.0132933706
    381,  0.146855399, 0.0128744058
    382,  0.137324125, 0.0119134812
    383,  0.125678867, 0.0143638747
    384,  0.115468018, 0.0142118987
    385,   0.10710226,  0.011145452
    386, 0.0955967903, 0.00955695566
    387,  0.086942941, 0.0147500364
    388, 0.0780431479, 0.0149890287
    389, 0.0616466105,  0.014871642
    390, 0.0525259152, 0.0114806201
    391, 0.0406062715,  0.012104122
    392, 0.0342832692, 0.0152646154
    393,  0.781892836, 0.0222561322
    394,  0.771984994, 0.0228480715
    395,  0.762015462, 0.0233608577
    396,  0.752010405, 0.0238675773
    397,  0.741879821, 0.0243156049
    398,  0.724939346, 0.0213026218
    399,  0.715367973, 0.0225905031
    400,  0.705872178, 0.0236190856
    401,  0.696269155,  0.023853505
    402,  0.686559081, 0.0253766514
    403,  0.677415609, 0.0211261455
    404,  0.666808605, 0.0217529014
    405,   0.65680635, 0.0221757144
    406,  0.641891658, 0.0226540156
    407,  0.631850123, 0.0229565855
    408,  0.621540785, 0.0232459437
    409,  0.610159218, 0.0233755242
    410,  0.599654734, 0.0230751708
    411,  0.588366628, 0.0252126101
    412,  0.578912318, 0.0230878927
    413,  0.570102811, 0.0236798916
    414,  0.560339153, 0.0235904753
    415,  0.550330341, 0.0233012233
    416,   0.53614378, 0.0224840138
    417,  0.525525033, 0.0219344273
    418,  0.513081431, 0.0241794642
    419,  0.502221406,    0.0222429
    420,  0.493892789, 0.0254041646
    421,  0.485962719, 0.0221152585
    422,  0.473192155, 0.0241167918
    423,  0.463167012, 0.0246794857
    424,  0.452843159, 0.0233870335
    425,  0.442066073, 0.0209566243
    426,  0.429641277, 0.0233284291
    427,  0.419588059, 0.0221459866
    428,  0.411926806, 0.0236302763
    429,  0.399189115, 0.0220904406
    430,  0.389296263, 0.0219984055
    431,  0.376778066, 0.0237859916
    432,  0.368842453, 0.0227028467
    433,   0.35937655, 0.0224980637
    434,  0.348014027, 0.0229149349
    435,  0.336406946, 0.0240414254
    436,   0.32543999, 0.0252022669
    437,  0.314694315, 0.0225110129
    438,  0.306646943,  0.022314813
    439,  0.297158211, 0.0218020063
    440,  0.283644468, 0.0190369766
    441,  0.275590748,  0.022105366
    442,  0.263564378,  0.024704678
    443,  0.252838314, 0.0215146001
    444,  0.241544783, 0.0238732584
    445,  0.230539739, 0.0231449958
    446,  0.220284715, 0.0224033184
    447,   0.21205914, 0.0233897772
    448,  0.200331718, 0.0242508315
    449,  0.182081938, 0.0245862473
    450,  0.175857633, 0.0218489021
    451,  0.168876708, 0.0218172595
    452,  0.159406424, 0.0244527999
    453,  0.149819747,  0.023077555
    454,  0.139437005, 0.0219552778
    455,  0.126110956, 0.0209262297
    456,   0.11497663, 0.0233116765
    457,  0.106542125,  0.020361349
    458, 0.0963278487, 0.0193522573
    459,  0.087161459, 0.0245248303
    460, 0.0731102973, 0.0229151156
    461, 0.0631717294, 0.0250498522
    462,  0.642182529, 0.0320182703
    463,  0.632157505, 0.0325652175
    464,  0.622032046, 0.0331298411
    465,  0.611878395, 0.0339242779
    466,  0.601222038, 0.0307452176
    467,  0.590859234, 0.0300865863
    468,  0.580687284,  0.031660717
    469,   0.57085371, 0.0323857628
    470,  0.560723484, 0.0326359421
    471,  0.550220966, 0.0330763645
    472,  0.540285289, 0.0337027758
    473,  0.524373889, 0.0310959797
    474,  0.515507042, 0.0323883593
    475,  0.505978167, 0.0318235196
    476,  0.496425897,  0.032856971
    477,  0.487182379,   0.03206053
    478,  0.475884765, 0.0326874554
    479,  0.466494858, 0.0335254706
    480,  0.456786573, 0.0331871845
    481,  0.440960735, 0.0328642651
    482,  0.429884911, 0.0304248314
    483,  0.420599908, 0.0310008377
    484,  0.410988003, 0.0308850687
    485,  0.401528031, 0.0305478889
    486,  0.392171502,  0.028776627
    487,   0.37616691, 0.0297704451
    488,  0.366773844,  0.031557139
    489,  0.357113868, 0.0321742706
    490,  0.348977983,  0.033136189
    491,  0.338868409, 0.0329769515
    492,  0.327923983, 0.0323847048
    493,  0.316167533, 0.0347653441
    494,  0.306317866, 0.0333639272
    495,  0.295791388, 0.0294423141
    496,  0.283406019, 0.0296388194
    497,  0.273243994, 0.0312978737
    498,    0.2550973, 0.0312763825
    499,  0.245050713, 0.0336667486
    500,  0.229771286, 0.0288106129
    501,  0.221176714, 0.0324228257
    502,  0.212185636, 0.0324121937
    503,  0.203519642, 0.0341072306
    504,  0.189999282, 0.0316052735
    505,  0.177948147, 0.0317111537
    506,  0.167955324, 0.0301996097
    507,  0.157536045, 0.0340119787
    508,  0.147740632, 0.0329368673
    509,  0.137803584, 0.0319096111
    510,  0.128032371, 0.0309344009
    511,  0.117313892, 0.0340659767
    512,  0.107278205, 0.0320340954
    513, 0.0970043167, 0.0304351449
    514,  0.506825209, 0.0409508497
    515,   0.49695012, 0.0413421467
    516,  0.486917168, 0.0414754227
    517,  0.476916671, 0.0418526754
    518,  0.466877341, 0.0424188562
    519,  0.456836432, 0.0426888019
    520,  0.446767122, 0.0429569148
    521,  0.431260288, 0.0392233767
    522,   0.42128846, 0.0399007238
    523,   0.41136989, 0.0401265845
    524,   0.40141356, 0.0400193334
    525,  0.390876889,  0.039360676
    526,   0.38008672, 0.0397345088
    527,  0.369667172, 0.0409770645
    528,  0.359835893, 0.0416673981
    529,   0.35017246, 0.0419551656
    530,  0.340238303, 0.0419498235
    531,  0.330361992, 0.0421803109
    532,  0.320775509, 0.0423567332
    533,  0.306344301, 0.0421966389
    534,  0.296539664, 0.0406538621
    535,  0.285769343, 0.0398413315
    536,   0.27538681, 0.0404908285
    537,   0.26597023, 0.0406485498
    538,  0.256483227, 0.0404559746
    539,  0.242145851, 0.0418002494
    540,   0.23125191, 0.0427069627
    541,  0.221364021, 0.0426651277
    542,  0.211532012, 0.0422039516
    543,  0.202007055, 0.0417806879
    544,  0.191406518, 0.0407509245
    545,  0.181533679, 0.0408801325
    546, 0.0240820982, -0.0043282127
    547, 0.0336738713, -0.00577793643
    548, 0.0431904346, -0.00662957225
    549, 0.0529664569, -0.00343660568
    550, 0.0622671135, -0.00354912784
    551, 0.0718767494, -0.00316716428
    552, 0.0819372609, -0.00342499209
    553, 0.0919116139, -0.00384886214
    554,   0.10183239, -0.00385965616
    555,  0.117278993, -0.00326181669
    556,  0.128172174, -0.0035715166
    557,  0.138349295, -0.00446840376
    558,  0.148066953, -0.00449380651
    559,  0.157766119, -0.00452714507
    560,   0.16734603, -0.0043267631
    561,  0.177218899, -0.00392690767
    562,  0.187328175, -0.00362090976
    563,  0.200297534, -0.00389158353
    564,  0.213071078, -0.000829084369
    565,  0.222696856, -0.00626659952
    566,  0.232405484, -0.00583600439
    567,  0.242051616, -0.00464819092
    568,  0.252713323, -0.00179183669
    569,  0.263817579, -0.00382692949
    570,  0.273577452, -0.0043108291
    571,  0.283203959, -0.00414470164
    572,  0.292846739, -0.00293239672
    573,  0.303759187, -0.00230741501
    574,   0.31363216, -0.00165153912
    575,  0.980653644, 0.00306847645
    576,   0.97076261, 0.00402942579
    577,  0.956018269, 0.00670179958
    578,  0.941206455, 0.00907088257
    579,  0.931320488, 0.0105779432
    580,   0.91648221, 0.0127734588
    581,  0.901625693, 0.0148473838
    582,  0.886750996, 0.0167838112
    583,  0.871856749, 0.0185630657
    584,  0.861916184, 0.0196530148
    585,  0.846991062, 0.0211517531
    586,  0.832052827, 0.0225136839
    587,  0.817105234,  0.023769103
    588,  0.802151442, 0.0249483418
    589,  0.792180121, 0.0257071611
    590,  0.777221501, 0.0268241856
    591,  0.762261689, 0.0279248692
    592,  0.747301161, 0.0290153548
    593,  0.732340276, 0.0301018283
    594,  0.722366452, 0.0308269467
    595,  0.707406104, 0.0319204889
    596,   0.69244653,  0.033023864
    597,  0.677487314, 0.0341330133
    598,   0.66747874, 0.0348753966
    599,  0.652465641, 0.0359850675
    600,  0.637451828, 0.0370848328
    601,  0.622436821,  0.038168814
    602,  0.607420325, 0.0392311215
    603,  0.592401862, 0.0402658731
    604,  0.582388282, 0.0409374908
    605,  0.567365885, 0.0419132225
    606,  0.552340746,  0.042845685
    607,  0.537312627, 0.0437289737
    608,  0.522281349,  0.044557184
    609,  0.512258708,  0.045075804
    610,  0.497222066, 0.0457990579
    611,  0.482182205, 0.0464527011
    612,  0.467140108, 0.0470526181
    613,  0.452097237, 0.0476335511
    614,  0.442068934, 0.0480275452
    615,     0.427028, 0.0486554168
    616,  0.411989301, 0.0493357405
    617,  0.396950394, 0.0500107147
    618,  0.381908089, 0.0506044477
    619,  0.371876955, 0.0509177558
    620,  0.356825918, 0.0512131117
    621,  0.341772199, 0.0512945391
    622,  0.326718569, 0.0511907451
    623,  0.311666787, 0.0509311669
    624,  0.301633745, 0.0506861098
    625,  0.286586553, 0.0502323098
    626,  0.271541864, 0.0497011803
    627,  0.256498963, 0.0491219833
    628,  0.241457015, 0.0485179424
    629,   0.23142989, 0.0480949655
    630,  0.216391504, 0.0474082418
    631,  0.201357469, 0.0466326177
    632,   0.18633002, 0.0457385629
    633,  0.171312138, 0.0446965471
    634,   0.16130738,  0.043905098
    635,  0.146314472, 0.0425509848
    636,  0.131343752, 0.0409705825
    637,  0.116402209, 0.0391350724
    638,  0.101498276, 0.0370161012
    639, 0.0866445079, 0.0345710255
    640, 0.0767839029, 0.0327037945
    641, 0.0620882176, 0.0294435155
    642,  0.047559198, 0.0255090725
    643, 0.0332732536, 0.0207686182
    644, 0.0193248075, 0.0151134534
    645, 0.0103857676, 0.0105639072
    646, 0.0129023558, -0.00704827765
    647, 0.0277189109, -0.00956274848
    648,  0.042687308, -0.0110464105
    649, 0.0526870191, -0.0118007455
    650, 0.0677064508, -0.0126235094
    651, 0.0827400908, -0.0131276036
    652, 0.0977802128, -0.0133755533
    653,  0.112822354, -0.0134300468
    654,   0.12285047, -0.0133902682
    655,  0.137892067,  -0.01324612
    656,  0.152932495, -0.0130101219
    657,  0.167971388, -0.0126905674
    658,  0.183008507, -0.012295804
    659,   0.19303219, -0.0119949756
    660,  0.208066136, -0.0114934361
    661,  0.223098218, -0.0109389462
    662,  0.238128588, -0.0103398236
    663,  0.253157467, -0.00970437564
    664,  0.263176024, -0.00926466007
    665,   0.27820307, -0.00858710241
    666,  0.293229461, -0.00789526198
    667,  0.308255523, -0.00719652092
    668,  0.323201001, -0.00650150236
    669,  0.333164781, -0.0060414956
    670,  0.348110944, -0.00536151323
    671,  0.363057941, -0.00469958922
    672,  0.378005981, -0.00406250684
    673,  0.387972057, -0.00365490443
    674,  0.402922422, -0.00307423691
    675,  0.417874187, -0.00253175828
    676,  0.432827085, -0.00202089781
    677,  0.447780788, -0.00153415662
    678,  0.457750231, -0.00121934374
    679,  0.472704679, -0.000756079738
    680,  0.487659246, -0.000296880869
    681,  0.502613723, 0.00016576382
    682,  0.512583196, 0.000479209528
    683,  0.527537286, 0.000953818671
    684,  0.542491436, 0.00142641237
    685,  0.557445943, 0.00188871915
    686,  0.572400987, 0.00233246572
    687,  0.582371414, 0.00261389883
    688,  0.597327828, 0.00300832442
    689,  0.612285256, 0.00336211338
    690,  0.627243817, 0.00366698811
    691,  0.637216687, 0.00384030631
    692,  0.652176678, 0.00406307587
    693,  0.667137027, 0.00425515091
    694,  0.682097614, 0.00443213806
    695,  0.697058201, 0.00460966956
    696,  0.707031786, 0.00473597599
    697,  0.721991897, 0.00494924188
    698,   0.73695147, 0.00519682793
    699,  0.751910686, 0.00546377897
    700,  0.761883557, 0.00564262643
    701,  0.776842952, 0.00589745771
    702,  0.791802943, 0.00611849129
    703,  0.806763649, 0.00628583133
    704,  0.816737771, 0.00635772664
    705,  0.831699371, 0.00639277883
    706,  0.846660793, 0.00632817531
    707,   0.86162132, 0.00615052925
    708,  0.876579821, 0.00584631367
    709,  0.886550307, 0.00556783471
    710,  0.901502669, 0.00504139019
    711,  0.916450799, 0.00439740811
    712,  0.931393504, 0.00365429302
    713,  0.941352248, 0.00309558026
    714,  0.956288457, 0.00222961465
    715,  0.971219897, 0.00159573718
    716,  0.981024265, 0.000128447587
    717,  0.988664865, -0.000543631264
    718,  0.989137113, 0.000786653196
    719, 0.00314555387, 0.000491833023
    720, 0.0919636935, 0.0300161801
    721, 0.00820682757, 0.00126602838
    722,  0.176649988, 0.0405290052
    723,  0.318803698, -0.00123037049
    724, 0.0148764187, 0.00247929594
    725, 0.00524811586, -0.00211283914
    726,  0.102121383, 0.0309381448
    727,   0.76700604, 0.0231114961
    728, 0.0179386698, 0.00621834444
    729,  0.186439484, 0.0409901217
    730,  0.308662593, -0.0019438829
    731,  0.501905084,  0.041166719
    732,  0.181743667, 0.0364794135
    733,   0.49193421, 0.0414552763
    734,  0.097095713, 0.0247595329
    735,  0.171773463,  0.040051382
    736,  0.522934854, 0.00500821881
    737, 0.0870298371, 0.0295138992
    738,  0.757020056, 0.0236237571
    739,  0.869901955, 0.0143262697
    740,  0.923687518, 0.00771519728
    741,  0.903968215, 0.00969273876
    742,  0.899004817, 0.0101673454
    743,   0.88250345, 0.00834881049
    744,  0.877776802, 0.00923924614
    745,    0.8582353, 0.0107104629
    746,  0.863183677, 0.0104348799
    747,  0.853274465, 0.0109896865
    748,  0.837573886, 0.0121351015
    749,  0.843149245, 0.0115775932
    750,  0.848268926, 0.0112791033
    751,  0.831712604, 0.0108816763
    752,  0.826661766, 0.0106603624
    753,  0.821688831, 0.0106520439
    754,  0.811717749, 0.0107637635
    755,  0.816708505, 0.0107016303
    756,  0.806711793, 0.0108422013
    757,  0.627019703, 0.00856190175
    758,  0.796584845, 0.0109593943
    759,   0.80167377, 0.0109209735
    760,  0.791492045, 0.0108074155
    761,    0.6320315, 0.00859072339
    762,  0.607031226, 0.00801896024
    763,  0.786634505, 0.0103126056
    764,  0.612049282, 0.00819766801
    765,  0.722269595, 0.00904595386
    766,  0.622015297, 0.00848777872
    767,  0.781677186,  0.010102421
    768,  0.403638303, 0.00161414663
    769,  0.398701847, 0.00168781669
    770,  0.647005916, 0.00862255692
    771,  0.601988137, 0.00782214478
    772,   0.71251303, 0.00932196062
    773,  0.642027378, 0.00861454848
    774,  0.727140963, 0.00915525202
    775,  0.388634354, 0.00170202123
    776,  0.596931577, 0.0075793108
    777,    0.7767362, 0.0100409938
    778,  0.586855114, 0.00728628365
    779,  0.383508712, 0.00149405759
    780,  0.591883421, 0.00739510404
    781,  0.707463801, 0.00962474756
    782,  0.393710703, 0.00177530758
    783,  0.771774173, 0.0100239161
    784,  0.651983976, 0.00862328522
    785,  0.423224628, 0.00192399893
    786,  0.581855297, 0.00716118794
    787,  0.373239905, 0.00069795642
    788,  0.637034595, 0.00860472862
    789,  0.368159086, 0.000304026122
    790,  0.378372967, 0.00112726365
    791,  0.656951368, 0.0086168889
    792,  0.617024124, 0.00836188719
    793,   0.57683593, 0.00691676466
    794,  0.408528388, 0.00159575592
    795,  0.363131821, -3.11455551e-05
    796,  0.413436413, 0.00163130311
    797,   0.57183677, 0.00665484974
    798,  0.691735923, 0.00934146997
    799,  0.741778433, 0.00994016975
    800,  0.766794205, 0.0100201862
    801,  0.566895604, 0.00643491931
    802,  0.358155221, -0.000357409474
    803,  0.761803508, 0.0100175124
    804,  0.661909521, 0.00859995931
    805,  0.432990164, 0.00229468429
    806,  0.666866243, 0.00855969917
    807,  0.353212863, -0.000705776562
    808,  0.348335445, -0.00107192656
    809,  0.561997116, 0.00627002958
    810,  0.442714363, 0.00252270699
    811,   0.71742487, 0.00912575144
    812,  0.557098746, 0.0061761369
    813,  0.696950436, 0.00972543098
    814,  0.503314614, 0.00475346111
    815,   0.34348008, -0.00138929929
    816,  0.552161038, 0.00619249092
    817,  0.338626683, -0.00157970563
    818,  0.746794283, 0.00999223441
    819,  0.676685989, 0.00846840721
    820,  0.333742291, -0.00155099959
    821,  0.671790183, 0.00850330386
    822,  0.686659217, 0.00889959652
    823,  0.328817993, -0.0012190569
    824,  0.751802862, 0.0100079281
    825,  0.547142446, 0.00631365227
    826,  0.462039649, 0.00372659089
    827,  0.483538717, 0.00537088374
    828,  0.756808281, 0.0100190639
    829,  0.681596816, 0.00856808014
    830,  0.493448675, 0.00452032778
    831,   0.70227474,  0.009922483
    832,  0.736802578, 0.00979157258
    833,  0.731923223, 0.00949365366
    834,  0.872978449, 0.00975105446
    835,  0.868105888, 0.0101300646
    836,  0.889332831, 0.0112868417
    837,  0.894075751, 0.0106758205
    838,  0.908931971, 0.00923165586
    839,  0.918807447, 0.00823742989
    840,  0.913876295, 0.00873801485
    841,  0.860019982, 0.0151958559
    842,  0.840405583, 0.0172429401
    843,  0.836171508, 0.0183454305
    844,  0.831533432, 0.0187403578
    845,  0.826744556, 0.0189402923
    846,  0.821834981, 0.0191638991
    847,  0.816877425, 0.0194154195
    848,  0.811897516, 0.0196840093
    849,  0.806898892, 0.0199540742
    850,  0.801864684,  0.020225767
    851,  0.786852956, 0.0217739139
    852,  0.796772718, 0.0205222163
    853,  0.716415703, 0.0269030649
    854,  0.776949048, 0.0225819275
    855,  0.711535335, 0.0273555014
    856,  0.701760352, 0.0280755349
    857,  0.731406987, 0.0248822197
    858,  0.687077105,  0.029330587
    859,  0.706644773, 0.0277760513
    860,  0.696842611, 0.0283544175
    861,  0.682145298, 0.0297481474
    862,  0.746974468, 0.0241077822
    863,  0.721309006, 0.0263883248
    864,  0.691948116, 0.0287705772
    865,  0.791686714, 0.0209955778
    866,  0.471884489, 0.0421746261
    867, 0.0191860758, -0.00336660305
    868, 0.0625591874, -0.00796997361
    869, 0.0576780848, -0.00785392988
    870, 0.0674560219, -0.00801856536
    871, 0.0823148116, -0.00826282986
    872, 0.0773228109, -0.00813024025
    873, 0.0873182341, -0.00841906294
    874,   0.04796727, -0.00713864667
    875, 0.0923184305, -0.00854522642
    876, 0.0723693743, -0.0080572255
    877,  0.102336273, -0.00859997328
    878, 0.0973203629, -0.00860703923
    879,  0.107364044, -0.00853290409
    880,  0.112438321, -0.00841672998
    881,  0.122763544, -0.0082460409
    882,   0.13808383, -0.00877903029
    883,  0.127911255, -0.00839927141
    884,  0.143060863, -0.00882087741
    885,  0.133040115, -0.0086353533
    886,  0.157857105, -0.00871891435
    887,   0.11759612, -0.00828360859
    888,  0.162781477, -0.00864920672
    889,  0.152928561, -0.0087651452
    890,  0.147984222, -0.00881480705
    891,  0.167695761, -0.00852799509
    892,   0.17265825, -0.0083678579
    893,  0.177644074, -0.00820632372
    894,  0.182679072, -0.00806875341
    895,  0.187664896, -0.00796918571
    896,  0.192579746, -0.00790522993
    897,   0.19730261, -0.00777608156
    898,  0.206810117, -0.00498014176
    899,  0.227567315, -0.00613443041
    900,  0.258684754, -0.00318671996
    901,  0.298344135, -0.00128368405
    902, 0.0164779071, 0.00927979685
    903, 0.0392410792, 0.0170305762
    904, 0.0207726154, 0.0111118862
    905, 0.0249395818, 0.0130997133
    906, 0.0537972562, 0.0221945867
    907, 0.0725034848, 0.0272859856
    908, 0.0678117946, 0.0262516029
    909, 0.0772946626, 0.0281641427
    910, 0.0821459964, 0.0289034471
    911,  0.112376876, 0.0331268236
    912, 0.0490203612, 0.0205467232
    913,  0.365849286, 0.0461635776
    914,  0.132110313, 0.0362227485
    915,  0.122217439,   0.03489035
    916,  0.137064502, 0.0367445499
    917,  0.370855808, 0.0458707027
    918,  0.142019063, 0.0372523777
    919,  0.146994442, 0.0377609655
    920,  0.151936501, 0.0382633507
    921,  0.156899363, 0.0387435108
    922,  0.350969434, 0.0465755686
    923,  0.345996946, 0.0465963855
    924,  0.161857516, 0.0391859785
    925,  0.166845828, 0.0396089107
    926,  0.341014534, 0.0466215014
    927,  0.386182249, 0.0449008681
    928,  0.331091255, 0.0467157885
    929,  0.336044461, 0.0466680117
    930,   0.36087653, 0.0463788398
    931,  0.326157838, 0.0467633419
    932,  0.355928093, 0.0465252325
    933,  0.321232438,  0.046740979
    934,  0.196860358, 0.0399870574
    935,  0.381073087, 0.0451472215
    936,  0.316286623, 0.0466588549
    937,  0.391304016, 0.0448067784
    938,   0.31136632, 0.0465550087
    939,  0.206764832, 0.0419829078
    940,  0.306425035, 0.0464130193
    941,  0.375941575, 0.0455049425
    942,  0.436745703, 0.0434862748
    943,  0.301444829, 0.0460329726
    944,  0.396224469, 0.0397314318
    945,  0.216455296, 0.0424657688
    946,  0.296419501, 0.0455858409
    947,  0.291312099,  0.045204483
    948,  0.286222011, 0.0450659841
    949,  0.406636745, 0.0448365472
    950,  0.226275444, 0.0427558757
    951,  0.511731803,   0.04078421
    952,  0.521588624, 0.0402981341
    953,  0.516659021, 0.0405947492
    954,  0.281111717, 0.0451020151
    955,   0.52650708, 0.0399238095
    956,  0.531451881, 0.0394909196
    957,   0.40158084, 0.0448584892
    958,  0.271117657, 0.0452327728
    959,  0.536400676, 0.0390510038
    960,  0.541311383, 0.0386811867
    961,  0.236410096, 0.0424111933
    962,   0.54627043, 0.0383875035
    963,  0.276083976, 0.0451853797
    964,  0.551316679, 0.0379778706
    965,  0.451799184,  0.042796351
    966,  0.556363642, 0.0376348831
    967,  0.561459899, 0.0373848937
    968,  0.566517293, 0.0371717848
    969,  0.251850277,  0.044788871
    970,   0.57155782, 0.0369325764
    971,  0.576553702,  0.036628928
    972,  0.581561863, 0.0362444595
    973,  0.416649401, 0.0445823297
    974,  0.586568773, 0.0357858837
    975,  0.596361876, 0.0309972074
    976,  0.606846929,  0.034508884
    977,  0.616937637, 0.0334737226
    978,  0.627110541, 0.0328427516
    979,  0.261385739, 0.0449990891
    980,  0.652169764, 0.0314522088
    981,  0.657169163, 0.0311498139
    982,  0.662174463, 0.0308321342
    983,  0.667190492, 0.0305071864
    984,  0.677191556, 0.0299616698
    985,  0.672216177, 0.0302055608
    986,  0.481919318, 0.0415773839
    987,  0.426663548, 0.0441325717
    988, 0.0441874154, 0.0188164786
    989,   0.31391564, 0.00340428622
    990,   0.32396099, -0.00087281008
    991,  0.461859852, 0.0425801389
    992,   0.51319766, 0.00494798645
    993,  0.028867133, -0.00513646333
    994,  0.532699347, 0.00566114811
    995,  0.471942246, 0.00541859446
    996,  0.247031197, -0.00358702545
    997, 0.0384380855, -0.00618768111
    998,  0.931753397, 0.00654579652
    999,  0.850074291, 0.0160241313
   1000,  0.237225935, -0.00534973061
   1001, 0.0585168265, 0.0236962885
   1002,   0.63718164, 0.0322968885
   1003,  0.278412044, -0.00433516689
   1004,  0.268732935, -0.0041575972
   1005,  0.287961721, -0.00374425552
   1006,    0.2177549, -0.0061773574
   1007,  0.461008936, 0.00837726239
   1008,  0.436348617,  0.038670972
   1009,  0.730289817, 0.0193979964
   1010,  0.710613787, 0.0231090188
   1011,  0.928392828, 0.0071831136
   1012,  0.252063125, 0.0406926125
   1013,  0.442624092, 0.00685470412
   1014,   0.42624405, 0.0396207161
   1015,  0.451605797, 0.0378982984
   1016,  0.816748619, 0.0150546599
   1017,  0.746791899, 0.0193347447
   1018,  0.255985886, 0.00389162195
   1019,  0.182246849, -0.00373886502
   1020,  0.626872599, 0.0279431026
   1021,  0.756862402, 0.0190248229
   1022,  0.461692631, 0.0379770733
   1023,  0.235550091, 0.0369166024
   1024, 0.0206263829, 0.00130649481
   1025,  0.221277893, 0.0376133956
   1026,  0.879705966, 0.0131889526
   1027, 0.0687553808, 0.0218860265
   1028,  0.470021665, 0.0107890125
   1029,  0.518763185, 0.00939492509
   1030,  0.261187762, 0.0404061452
   1031,  0.471541524, 0.0376072899
   1032,  0.301513255, 0.00372163951
   1033,  0.766853631, 0.0186993051
   1034,  0.826589823, 0.0148057239
   1035,  0.506399632,   0.03650501
   1036,  0.433144271, 0.00673471158
   1037,   0.21171838, 0.0371563993
   1038,  0.720122337,   0.02205831
   1039,    0.2448107, 0.00183322094
   1040,  0.481808275, 0.0123439915
   1041,  0.315928906, 0.0422587618
   1042,  0.481665313, 0.0365278684
   1043,  0.845096409, 0.0164867379
   1044,  0.202933505,  0.038180884
   1045,  0.172180384, -0.00413523521
   1046, 0.0457293876, 0.0138638392
   1047,  0.616449177, 0.0284120347
   1048,   0.14320682, -0.0045344783
   1049,  0.511234522, 0.0364625342
   1050,  0.416329414, 0.0400450081
   1051,  0.751778364, 0.0145770069
   1052, 0.0257774219, 0.00981257111
   1053,  0.776747882, 0.0183696598
   1054,  0.172402784,  0.035273172
   1055,  0.162511215, -0.00450336002
   1056,  0.509010673, 0.0094886357
   1057, 0.0777344704, 0.0236729532
   1058, 0.0528033078, -0.00759300543
   1059, 0.0920282528, 0.0247485619
   1060, 0.0670430809, -0.00334855006
   1061,  0.106837407, -0.00369908265
   1062,  0.494224936, 0.00906704925
   1063,  0.691266418, 0.0242940336
   1064, 0.0576097071, -0.00367476535
   1065,  0.722640574, 0.0131298322
   1066,  0.713281631, 0.0137774739
   1067,  0.741658688, 0.0146734361
   1068,  0.691112161, 0.0140636042
   1069,  0.428083807, 0.00211867271
   1070,  0.437852591, 0.00240299338
   1071, 0.0768903643, -0.00322535029
   1072,  0.334591687, 0.0027386467
   1073,  0.547145426, 0.0109692579
   1074,  0.552140653, 0.0104703326
   1075,  0.343787611, 0.00285017025
   1076,  0.556891799, 0.0103841182
   1077,  0.353252888, 0.00379773835
   1078,  0.561627805, 0.0104971193
   1079,  0.566395342, 0.0106833447
   1080,   0.36315766, 0.00453783479
   1081,   0.57125622, 0.0109342914
   1082,  0.373259097, 0.00539618172
   1083,  0.576240063, 0.0113146808
   1084,  0.581362069, 0.0117914099
   1085,  0.383905292, 0.00684108399
   1086,  0.586458504, 0.0117941443
   1087,  0.591487706, 0.0117733004
   1088,  0.596519709, 0.0119905416
   1089,  0.606772304, 0.0126685351
   1090,  0.636917293, 0.0133559965
   1091,  0.616743207, 0.0132740801
   1092,  0.132904947, 0.0314400755
   1093,  0.806754529, 0.0153906848
   1094,  0.142792061, 0.0323949382
   1095, 0.0968552232, -0.00392372999
   1096, 0.0869550481, -0.0036737537
   1097,  0.152669325, 0.0334805958
   1098,  0.835120797, 0.0151152704
   1099,   0.37475881,  0.040420752
   1100,  0.355005831, 0.0419035628
   1101,  0.162451193, 0.0344797671
   1102,  0.319031328, 0.0040466967
   1103,  0.335259855, 0.0420428701
   1104,  0.133376405, -0.00417808024
   1105,  0.152898967, -0.00451387744
   1106,  0.677078903, 0.0257218182
   1107,  0.516045213, 0.0364033245
   1108,  0.520781577, 0.0360375755
   1109,  0.530410469,  0.034886416
   1110,  0.545300663, 0.0337425545
   1111,  0.555474699, 0.0327399261
   1112,  0.565864801, 0.0325541608
   1113,  0.651965618, 0.0269039627
   1114,  0.656956375, 0.0266667437
   1115,  0.666983902, 0.0261273943
   1116,  0.421651155, 0.0443774648
   1117,  0.266257733, 0.0451442786
   1118,  0.411643356, 0.0447269529
   1119,  0.256578147, 0.0449104607
   1120,  0.194921926, 0.0347658694
   1121,  0.606132686, 0.0299316887
   1122,  0.364685535,  0.041358225
   1123,  0.491779745,  0.037034113
   1124,  0.325573474, 0.0423789769
   1125,  0.108545974, 0.0267623886
   1126, 0.0256126616, 0.000296860264
   1127,  0.236058816, -0.000468767103
   1128,  0.123181105, 0.0300841518
   1129,   0.27058664, 0.0407289118
   1130,  0.503999591, 0.00930866878
   1131,     0.039198, -0.00144815235
   1132,  0.786252558, 0.0177918579
   1133, 0.0484136455, -0.00279223127
   1134,   0.26963681, 0.000623582222
   1135,  0.537215948, 0.00945953839
   1136,  0.283118039, 3.64339976e-05
   1137,  0.274167091, 0.000135838578
   1138,  0.641998887, 0.0273295492
   1139, 0.0554111786, 0.0176741295
   1140,  0.265006006, 0.00121491647
   1141,  0.702676058, 0.0154090105
   1142,  0.498973161, 0.00920778792
   1143,  0.030175183, -0.000671490503
   1144,  0.636998057, 0.0275372788
   1145,   0.22703208, -0.00149043719
   1146,  0.486791372,  0.036732439
   1147,  0.200546145, 0.0360983685
   1148,  0.406418324, 0.0401086323
   1149,  0.731617332, 0.0140893534
   1150,  0.345237076, 0.0419624373
   1151,  0.291585982, 0.00133570237
   1152,  0.527906299, 0.00933047198
   1153,  0.113616951, 0.0281070918
   1154,  0.513953209, 0.00956980232
   1155,  0.681037486, 0.0125164818
   1156,  0.681916475, 0.0259077046
   1157,  0.217806354, -0.00142515416
   1158,  0.476570368, 0.0371199585
   1159,  0.485597998,  0.010155879
   1160,  0.206734762, 0.0365114398
   1161,  0.771822631, 0.0185450893
   1162,  0.796458006,  0.015744552
   1163,  0.496712536, 0.0370102264
   1164,  0.671607316,  0.012752506
   1165,   0.19073838, 0.0359513499
   1166,  0.414046258, 0.00592725025
   1167,  0.761865437, 0.0188696571
   1168,  0.523314953, 0.00908366963
   1169,  0.060002584, 0.0192566309
   1170,  0.295445323, 0.00309099746
   1171,  0.466655135,  0.037902493
   1172,  0.394644141, 0.00705984794
   1173,  0.661779165, 0.0130475471
   1174,  0.761797786, 0.0144237746
   1175,  0.396320879, 0.0347980559
   1176,  0.404563278, 0.00629947754
   1177,  0.751849592, 0.0191967543
   1178,  0.431700766, 0.0438102037
   1179,  0.301589549, 0.0414260887
   1180,  0.646893978,  0.013252507
   1181,  0.701258719, 0.0238446016
   1182,   0.77175492, 0.0142701995
   1183,   0.10289938,  0.024357317
   1184,  0.626845896, 0.0134310257
   1185,  0.585634112, 0.0310371742
   1186,    0.2911852,  0.039794188
   1187,  0.542188108, 0.00625786791
   1188,  0.186292559, 0.0364770107
   1189,  0.385404825, 0.0391096622
   1190,  0.280463934, 0.0401576236
   1191,  0.726298988, 0.0257050321
   1192,  0.601809204, 0.0350142159
   1193,  0.122753061, -0.00303707924
   1194,  0.192155138, -0.00353886117
   1195, 0.0295140855,  0.014274288
   1196,  0.646987915, 0.0271232873
   1197,  0.308585197, 0.0037620787
   1198,  0.575797141, 0.0321189575
   1199,  0.682004988, 0.0225884207
   1200,  0.488187402, 0.0139614651
   1201,  0.110435165, 0.0223471988
   1202,  0.575497031, 0.0155260796
   1203,  0.596021593, 0.0160696618
   1204,  0.586393237, 0.0162298195
   1205,  0.646879911, 0.0225066654
   1206,  0.541376948, 0.0119118327
   1207,  0.106216848, 0.00116184517
   1208,  0.696020842, 0.0192514304
   1209,  0.368254244, 0.0361987725
   1210,    0.1339463, -5.35094478e-05
   1211, 0.0275330823, 0.00498266472
   1212,  0.315819591, 0.0380837247
   1213,  0.680537999, 0.0161109418
   1214,   0.60660851, 0.0170365237
   1215,  0.671947837,  0.021479452
   1216,  0.499524832, 0.0137248626
   1217,  0.133609802, 0.0265667941
   1218, 0.0963816717, 0.000650658098
   1219,   0.70505631, 0.0195618644
   1220,  0.207870468, 0.0312695652
   1221,  0.378214151, 0.0108008552
   1222,  0.143247917, -0.000333330245
   1223,   0.33239758, 0.00777747575
   1224,  0.714285195, 0.0182049368
   1225,  0.565467834, 0.0280733518
   1226,   0.35861066, 0.0369653404
   1227, 0.0617191903, 0.000808542594
   1228,   0.67167598, 0.0170859862
   1229,  0.324965984, 0.0381336622
   1230,   0.17652595, 0.000362091989
   1231,  0.286839813, 0.0045213867
   1232, 0.0473176986, 0.00844003446
   1233, 0.0506547913, 0.0158146657
   1234,  0.465511888, 0.00940167066
   1235,  0.533034801, 0.0109621631
   1236,  0.430664241, 0.0346863829
   1237,  0.636897087, 0.0228091702
   1238, 0.0867225006, 0.00097032357
   1239,  0.726876616, 0.0165160671
   1240,  0.438010603, 0.0112584792
   1241,  0.256005794, 0.0358319916
   1242,  0.152841374, -0.000252784608
   1243,  0.275006771, 0.00445501972
   1244,  0.420926958, 0.0354285017
   1245,  0.456706822, 0.0379350781
   1246,  0.260380894, 0.00214669039
   1247,  0.248854816, 0.00392356468
   1248,  0.368139237, 0.00927423313
   1249,  0.621714413, 0.0281545389
   1250,  0.230068728, 0.0327166729
   1251,  0.474467158, 0.0127766067
   1252,  0.216538265, 0.0374662317
   1253,  0.182475954, 0.0284557734
   1254,  0.781581819, 0.0181623865
   1255,  0.349464655, 0.0374714695
   1256,  0.428339779, 0.0110949855
   1257,  0.265967876, 0.0361724198
   1258,  0.143683642,  0.027464876
   1259,  0.656776369, 0.0176566783
   1260,  0.501091719, 0.0322944522
   1261,  0.334400654, 0.0374209397
   1262,  0.240483642, 0.000469543564
   1263,  0.166719258, -0.000122728568
   1264,  0.310829163, 0.00892024115
   1265, 0.0712486878, 0.00188490341
   1266,  0.611208558, 0.0288880896
   1267,  0.411135495, 0.0354916565
   1268,  0.554893851, 0.0279171001
   1269, 0.0780854523, 0.0193035956
   1270,  0.418359816, 0.00172406342
   1271,  0.339164317, 0.0026032778
   1272,  0.601639986, 0.0124515481
   1273,  0.266393751, 0.00604749657
   1274, 0.0765211955, 0.00171468244
   1275,  0.525539339, 0.0355100818
   1276,  0.201971754, -0.00717791636
   1277,  0.661957681, 0.0264050793
   1278,  0.127177089, 0.0356110036
   1279,   0.60059458, 0.0267936531
   1280,  0.231589615, -0.00109954667
   1281,  0.162091374, -0.000403462822
   1282,  0.118445359, 0.0291103255
   1283,  0.616411209, 0.0182661731
   1284,  0.274458885, 0.0357694812
   1285, 0.0438458063, -0.00197441061
   1286,  0.343948245, 0.00705685653
   1287,  0.222455889, -0.00160221965
   1288,  0.631963015, 0.0277437549
   1289,   0.73630172, 0.0194999073
   1290,  0.401421189, 0.0352163017
   1291,  0.330025822, 0.00367709179
   1292,  0.339517593, 0.0374009274
   1293,  0.501563013, 0.0367631502
   1294,  0.701146781, 0.0197470356
   1295,  0.353215963, 0.00838221982
   1296,  0.410243779, 0.0106222443
   1297,  0.646853507, 0.0178823434
   1298,  0.358226508, 0.00878936332
   1299,  0.626745343, 0.0182813443
   1300,  0.579797924, 0.0272280127
   1301,  0.661815226, 0.0219740085
   1302,  0.298232198, 0.00663165189
   1303,  0.491817981, 0.0330352597
   1304, 0.0572046563, 0.0133843962
   1305,  0.401001632,  0.011142482
   1306,  0.116718777, 0.00157374493
   1307,     0.122892, 0.00278746919
   1308,  0.344557434,  0.037411321
   1309,  0.153586075, 0.0286397059
   1310,  0.163078234, 0.0298472792
   1311,  0.544754088, 0.0298405904
   1312,    0.2850537, 0.0346248411
   1313,   0.27870971, -0.000127004969
   1314,  0.198861003, 0.0325760469
   1315,  0.636871874,  0.018087877
   1316,  0.363236159, 0.00903655402
   1317, 0.0423620939, 0.00843464956
   1318,  0.378593385,  0.034463156
   1319,  0.302394956,  0.036607597
   1320, 0.0644458085, 0.0206629839
   1321,  0.157603979, -0.000435839407
   1322,  0.081716828, 0.00131636951
   1323,  0.575132251, 0.0277524367
   1324, 0.0825267062, 0.0195006691
   1325,  0.389947414, 0.0122155435
   1326,  0.534074724, 0.0292616021
   1327, 0.0663758144, 0.00138504698
   1328,  0.171479359, 0.000120315352
   1329,  0.186790973, 0.000904319633
   1330,  0.329463989, 0.0376074687
   1331,  0.718957484, 0.0177721567
   1332,  0.100672394, 0.0185094047
   1333,  0.519898474, 0.0139949145
   1334,  0.138614357, 0.0269129146
   1335,  0.196882769, 0.000876148464
   1336,  0.354031801, 0.0373633653
   1337,  0.481328785, 0.0307648089
   1338,  0.318289191, 0.00830708537
   1339,  0.212621897, -0.00578600541
   1340,  0.148013577, -0.000247111049
   1341,  0.373045683,  0.009726041
   1342,  0.509605527, 0.0140672093
   1343,  0.091584079, 0.000727861945
   1344,   0.18163237, 0.000631138915
   1345,  0.419228166, 0.00998645835
   1346,  0.320414662, 0.0380427502
   1347,  0.709543705,  0.018738186
   1348, 0.0574089997, 0.000319776009
   1349, 0.0917657539, 0.0196209252
   1350, 0.0737987459, 0.0187826287
   1351,   0.36335212, 0.0365929008
   1352,  0.591575086, 0.0353602841
   1353,  0.128912613, 0.0264794771
   1354,  0.138536274, -0.000431262801
   1355,  0.384023696, 0.0125522213
   1356,  0.570398808, 0.0280001368
   1357,   0.47109583, 0.0331998095
   1358,  0.596453786, 0.0272433721
   1359,  0.101247132, 0.000802970084
   1360,  0.310412675, 0.0370040163
   1361,  0.373268127, 0.0355647132
   1362,  0.672066987, 0.0258536935
   1363, 0.0532759242, 0.000318228733
   1364,  0.216581762, 0.0324353352
   1365,   0.12887679, 0.00102389767
   1366,  0.884667873, 0.0123507408
   1367,  0.213760495, 0.00384036824
   1368,  0.461720377, 0.0334545486
   1369,  0.519734204, 0.0317273512
   1370,  0.124333151, 0.0253742803
   1371,  0.304468006, 0.00172887591
   1372,  0.478566229, 0.0159400459
   1373,   0.24029322, 0.0357039608
   1374,  0.423510581, 0.00625731656
   1375,   0.55673933, 0.0145343319
   1376,  0.689963579, 0.0191876944
   1377,  0.741659641, 0.0194538087
   1378, 0.0394520499, 0.00430369703
   1379,  0.173374519, 0.0300718639
   1380,  0.565935552, 0.0149691803
   1381,  0.446491122, 0.0379353315
   1382,  0.510884404, 0.0321376435
   1383,  0.565385759, 0.0237083267
   1384,  0.130623236, 0.00521744043
   1385,   0.25838244, 0.00820083264
   1386,  0.626752198, 0.0231071636
   1387,  0.676397622, 0.0166148078
   1388,  0.371505618,  0.030981902
   1389,  0.361909211, 0.0318504684
   1390,  0.138557211, 0.0033794872
   1391,  0.119783834, 0.0240694266
   1392, 0.0699336976, 0.0174592156
   1393, 0.0492784344, 0.00142674311
   1394,  0.191343486, 0.0060040853
   1395,     0.352835, 0.0328939483
   1396,  0.226513863, 0.00319315423
   1397,  0.605023801, 0.0256951414
   1398,  0.238779366, 0.00529460795
   1399,  0.666725039, 0.0173401311
   1400,  0.343985349, 0.0328875221
   1401,  0.214387387, 0.00833853427
   1402,  0.246083215, 0.00850090198
   1403, 0.0590744875, 0.00923771597
   1404,  0.578104138, 0.0198655874
   1405,  0.384559095, 0.0324336179
   1406,  0.651820064, 0.0177732389
   1407,  0.299494773, 0.0328709669
   1408,  0.395811945, 0.0127745597
   1409,  0.616146564, 0.0233430434
   1410,  0.574646711, 0.0235684942
   1411,  0.147842959, 0.00405523926
   1412,  0.543866217, 0.0169115067
   1413,  0.111340933, 0.00125003303
   1414,  0.611385107, 0.0178435016
   1415,  0.335573018, 0.00984501094
   1416,   0.28960973,  0.010186973
   1417,  0.560358465, 0.0280302558
   1418,  0.529929578, 0.0145811038
   1419,  0.459745347, 0.0128131015
   1420, 0.0824260414, 0.0148371104
   1421,  0.442552954, 0.0113120703
   1422,  0.435745507, 0.0338118188
   1423,  0.276498437, 0.00849587657
   1424,  0.251256555, 0.0365670994
   1425,  0.591371834, 0.0200104862
   1426,  0.433311522, 0.0113296444
   1427,  0.425755024,  0.035162393
   1428,  0.316337496, 0.0112585798
   1429,  0.234447375, 0.0318773277
   1430,  0.781511247, 0.0141811622
   1431,  0.260981739,  0.035438396
   1432,   0.16745612, 0.0348704159
   1433,  0.272547156, 0.0103390785
   1434,   0.41605103, 0.0355210751
   1435,  0.548754573, 0.0276216175
   1436,  0.348435789, 0.00774119608
   1437,  0.621606112, 0.0183274858
   1438,  0.269924253, 0.0362908654
   1439,  0.119894475, 0.00737106102
   1440,  0.406288058, 0.0353616476
   1441,  0.414747804, 0.0101099871
   1442,  0.294460446, 0.00894492026
   1443,  0.631834745, 0.0181888212
   1444,  0.515573382, 0.0197207928
   1445,  0.297281832, 0.0361077525
   1446,  0.158369869, 0.0292746946
   1447,  0.197357386, 0.0290338434
   1448,  0.492163986, 0.0299398806
   1449,  0.279569328,  0.035310559
   1450,  0.539758861, 0.0277810395
   1451,   0.47576198, 0.0200685691
   1452,  0.483923316, 0.0258807112
   1453,  0.457315654, 0.0283683091
   1454,  0.180825517, 0.00493456936
   1455,  0.203328907, 0.0298321377
   1456,  0.504957199, 0.0175647661
   1457,   0.20188947, -0.00100892759
   1458,  0.470658123, 0.0284419451
   1459,  0.584276259, 0.0263597369
   1460,  0.215956256, 0.0270508491
   1461,  0.500362039, 0.0180062242
   1462,   0.12947233, 0.0228951946
   1463,   0.49133417, 0.0167312939
   1464,  0.170566857, 0.00440348871
   1465,  0.515004098,  0.029163165
   1466,  0.108738713, 0.0179036502
   1467,  0.560825884, 0.0191843603
   1468,  0.111690722, 0.0183836352
   1469,  0.495359331, 0.0191072319
   1470,   0.55267036, 0.0181119274
   1471,  0.161388084, 0.00366076967
   1472,  0.488687068, 0.0192669146
   1473,  0.056684982, 0.00416589389
   1474,   0.21254468, 0.0286739226
   1475,   0.50964576, 0.0183558222
   1476,  0.209368303, 0.0266223475
   1477,  0.193763211, 0.0305045713
   1478,  0.489094645, 0.0275307316
   1479,  0.477238655, 0.0266393423
   1480,   0.46642822, 0.0294267051
   1481,  0.462089092, 0.0289848521
   1482, 0.0704334006, 0.00748410402
   1483,  0.300820678, 0.0109821167
   1484,  0.482400298, 0.0193065573
   1485,  0.685636282, 0.0220115259
   1486,  0.521862626,  0.018669283
   1487,  0.523132503, 0.0268074684
   1488,  0.500123203, 0.0279180333
   1489, 0.0817572251, 0.00590581447
   1490,  0.267574966, 0.0108258873
   1491, 0.0351099037, 0.00910003856
   1492,  0.176911116,  0.026388187
   1493, 0.0957412943, 0.0143114561
   1494,  0.441420466, 0.0381626524
   1495,  0.505585551,   0.02655733
   1496,  0.279339552, 0.0070953276
   1497,  0.570213079, 0.0193818659
   1498,  0.172152221, 0.0256931111
   1499,  0.532980204, 0.0180695876
   1500,  0.282675683, 0.00894390792
   1501,   0.10451065, 0.0167019386
   1502,  0.423562855, 0.0106787244
   1503, 0.0548639745, 0.00770719908
   1504,  0.322611392, 0.0106098754
   1505, 0.0913641751, 0.00524400314
   1506,  0.087141566, 0.0196273327
   1507,  0.333698541, 0.0330144465
   1508,  0.381269574, 0.0170811899
   1509,  0.319985181, 0.0330198891
   1510,  0.312985748, 0.0328974128
   1511,  0.574632823,   0.01948075
   1512,   0.59877634, 0.0200680792
   1513,  0.185834572, 0.0283013619
   1514,  0.144736513, 0.0225344468
   1515,  0.372643083, 0.0136072906
   1516,  0.100476205, 0.00526282145
   1517,  0.467757732, 0.0156836063
   1518,  0.363493502, 0.0135625917
   1519,  0.110859387, 0.00587753113
   1520,  0.736685812, 0.0245218463
   1521,  0.603218794, 0.0218146201
   1522,  0.154785529, 0.0236893687
   1523,  0.225700676, 0.0324866846
   1524,  0.353107959, 0.0130617172
   1525,   0.39677915, 0.0302497949
   1526,  0.405674517, 0.0110029001
   1527,  0.307288766, 0.0106759174
   1528,  0.291439205, 0.0335538983
   1529,  0.451647937, 0.0328977257
   1530,  0.051218655, 0.00526833301
   1531,  0.488965124, 0.0239263102
   1532,  0.461627334, 0.0185993873
   1533,  0.111614011, 0.0144375358
   1534,  0.432580709, 0.0255635511
   1535,  0.458392799, 0.0232093986
   1536,  0.209538281, 0.00504057202
   1537,  0.479794055,  0.023006456
   1538,  0.285321087,  0.012939644
   1539,  0.205025569, 0.0236269943
   1540,  0.498013794, 0.0237227939
   1541,  0.313092262, 0.0133150062
   1542,  0.179115206, 0.0228464697
   1543,  0.163835377, 0.0252715927
   1544, 0.0997298509,  0.013792499
   1545,  0.217141613, 0.0232738294
   1546,  0.339548081, 0.0104651544
   1547,  0.272590786, 0.0145334853
   1548,  0.232972413, 0.0272015985
   1549,  0.556351364,  0.018715173
   1550,  0.091462642, 0.0146103455
   1551,  0.508414507, 0.0224044044
   1552,  0.531835914, 0.0245043319
   1553,  0.288377553,  0.027909888
   1554,  0.425223321, 0.0307825431
   1555,  0.260166496, 0.0113598732
   1556,  0.406490147, 0.0164043158
   1557,  0.397448301, 0.0267182197
   1558,  0.226112604,  0.026556015
   1559,  0.218266383, 0.00784992427
   1560,  0.121415451, 0.0182822589
   1561, 0.0719744563, 0.0125745591
   1562,  0.189566806, 0.0110936062
   1563,  0.442498386, 0.0160033405
   1564,  0.582911849, 0.0217611957
   1565,  0.554936945, 0.0230683275
   1566,  0.380123079,  0.027447246
   1567,  0.390128464,  0.017064102
   1568, 0.0676375628,  0.011769007
   1569,  0.303044736, 0.0300307292
   1570,   0.33445558, 0.0135083096
   1571,  0.229843572, 0.00836686231
   1572,  0.135964125, 0.0162210818
   1573,  0.451809824, 0.00720311282
   1574,  0.447220892, 0.00696213031
   1575,   0.17975615, 0.00918566622
   1576,  0.595509589, 0.0197928865
   1577,  0.246679366, 0.0381660648
   1578,  0.469372958, 0.0220037233
   1579,  0.240669578, 0.0109283999
   1580,  0.452062696, 0.0279299933
   1581,   0.22102657,  0.027183339
   1582,  0.250057459, 0.0320269726
   1583,   0.56559217, 0.0193286147
   1584,  0.465402067, 0.0202571563
   1585,  0.369867563, 0.0267675091
   1586,  0.115891866,  0.018618634
   1587,    0.1696174, 0.00854761619
   1588,  0.249374241,  0.011203262
   1589,  0.313048244, 0.0273738317
   1590,   0.35308215, 0.0177530665
   1591,  0.156271949, 0.0185623001
   1592,  0.379141122, 0.0208496116
   1593,  0.133985624, 0.0116076963
   1594,  0.142456502, 0.00799832772
   1595,  0.152832419, 0.00837891828
   1596,  0.122957692, 0.0106662568
   1597,  0.517881215,  0.026994383
   1598,  0.164474428, 0.00872475374
   1599,  0.360503465,  0.027195733
   1600,  0.175066963, 0.0247744247
   1601,  0.322705626, 0.0289561432
   1602, 0.0995997414, 0.00940176845
   1603,  0.086769782,  0.010051012
   1604, 0.0771831498, 0.0108953016
   1605,  0.540023506, 0.0196644142
   1606,  0.168178588, 0.0258319695
   1607,  0.433607042, 0.0162809435
   1608,  0.349797219, 0.0286463462
   1609,  0.333571315, 0.0291873571
   1610,  0.319815665, 0.0145412898
   1611,  0.329729855,  0.010538348
   1612,   0.14587234, 0.0176585298
   1613,  0.114999391, 0.0101136491
   1614,  0.372421592, 0.0166479312
   1615,  0.343457371, 0.0283836108
   1616,   0.27704981, 0.0262966659
   1617,  0.338121802, 0.0286921188
   1618,  0.369272858, 0.0183119588
   1619,  0.363968104,  0.018078981
   1620,  0.415849447, 0.0310906153
   1621,  0.111125462, 0.0103095006
   1622,  0.140748724, 0.0171410032
   1623,   0.32956779, 0.0282627251
   1624,   0.35533759, 0.0275364146
   1625, 0.0820868537, 0.0103412429
   1626,  0.375535518, 0.0183556285
   1627,  0.118084125, 0.0102639273
   1628,   0.15890947, 0.0078110015
   1629, 0.0913175121, 0.0098075578
   1630,   0.60656029,  0.020632904
   1631,  0.151104823, 0.0180536062
   1632,   0.14748691, 0.00833528861
   1633,  0.315887272, 0.0298780985
   1634,  0.365376532, 0.0270416848
   1635,      0.17475, 0.00863200705
   1636,  0.358717144, 0.0179239586
   1637,  0.102736391, 0.00962051004
   1638,  0.137240991, 0.00725239841
   1639,  0.384923309, 0.0199219324
   1640,  0.390937179, 0.0338535495
   1641,  0.129055783, 0.0112305786
   1642,   0.30664897, 0.0271952059
   1643,  0.446463525,  0.027224008
   1644,  0.373756468, 0.0258712173
   1645,  0.543700755, 0.0239028856
   1646,  0.184683725, 0.0100137694
   1647,  0.267599493, 0.0318324938
   1648,  0.129291818, 0.0175285377
   1649,  0.243910879, 0.0123387091
   1650,  0.299905807,  0.026412135
   1651,  0.394391567, 0.0180154257
   1652,  0.387334734, 0.0268479791
   1653,  0.295991719, 0.0127994185
   1654,   0.19285199, 0.0265471246
   1655,  0.194209173, 0.0126756858
   1656,  0.406188726, 0.0304616299
   1657,  0.415899634,  0.014243708
   1658,  0.275758535, 0.0134193692
   1659,  0.467254162, 0.0259800516
   1660,  0.208261609, 0.000547367265
   1661,  0.441771299, 0.0431641154
   1662,  0.246723548, 0.0148496395
   1663,  0.132043645, 0.0142487735
   1664,  0.364401698, 0.0225255135
   1665,  0.373544782, 0.0208955109
   1666,  0.141824156, 0.0124422861
   1667,  0.382876158, 0.0238867365
   1668,  0.353882879, 0.0225769002
   1669,   0.52906388, 0.0202073846
   1670,  0.152223587, 0.0130700404
   1671,  0.346485138, 0.0173612963
   1672,  0.163670644, 0.0139710056
   1673,  0.161027849, 0.0194599871
   1674,  0.587149799, 0.0206948835
   1675,  0.119523555, 0.0133814262
   1676,   0.52750963,  0.025967259
   1677,  0.447520018, 0.00266270759
   1678,   0.42910108, 0.0265063047
   1679,  0.247148961, 0.0441590548
   1680,  0.310369849,  0.018895464
   1681,  0.205248594, 0.00727155898
   1682,   0.18499954, 0.0207804088
   1683,  0.333376199, 0.0184562784
   1684,   0.42824024, 0.0188443195
   1685,  0.281548679, 0.0250390507
   1686,   0.26339227, 0.0113903163
   1687,  0.409478486, 0.0210124571
   1688,  0.420230508, 0.0265642349
   1689,  0.225567371,  0.012328838
   1690,  0.401088983, 0.0259826407
   1691,  0.447579235, 0.0214488637
   1692,  0.437470824, 0.0192933548
   1693,   0.23727639, 0.00994137954
   1694,  0.224088594, 0.0211837757
   1695,  0.253787696,  0.027411703
   1696,  0.255343437, 0.0109476084
   1697,  0.411155671, 0.0266325977
   1698,  0.260822415, 0.0296001099
   1699,  0.440128505, 0.0266998336
   1700,  0.397846103, 0.0188257098
   1701,  0.292773724, 0.0251693781
   1702,  0.297178268, 0.0170630794
   1703,   0.29002282, 0.0210293308
   1704,  0.195381984, 0.0201220885
   1705,  0.324287474, 0.0179844331
   1706,  0.270040154, 0.0193605404
   1707,   0.20151481, 0.0108217346
   1708,  0.277714133, 0.0169503912
   1709,  0.202101484, 0.0183524098
   1710,  0.456753254, 0.0200259779
   1711,  0.222314879, 0.0168407466
   1712,  0.208803847, 0.0197893195
   1713,  0.189162359,  0.021320248
   1714,  0.214867413, 0.0205198843
   1715,  0.266312182, 0.0211693961
   1716,  0.281452984, 0.0151394391
   1717,  0.301154375, 0.0162328761
   1718,  0.287645847, 0.0168655068
   1719,  0.522237122, 0.0228523854
   1720,  0.172473982, 0.0221975204
   1721,  0.272564977, 0.0270584449
   1722,  0.315913498, 0.0181878209
   1723,  0.417939037, 0.0180105176
   1724,  0.173845068, 0.0123521872
   1725,  0.182916984, 0.0145678977
   1726,  0.301947415, 0.0204111729
   1727,  0.394293725, 0.0235652234
   1728,  0.342006415, 0.0233985484
   1729,  0.332220346, 0.0256388616
   1730,  0.214824811, 0.0124938525
   1731,  0.320955157,  0.021765938
   1732,  0.310369521, 0.0236760266
   1733,  0.191477731, 0.0174629111
   1734,  0.422752529, 0.0157742519
   1735,  0.239543796, 0.0151069853
   1736,  0.238814518, 0.0304581448
   1737,  0.243580535, 0.0285898726
   1738,  0.434624195, 0.0292654186
   1739,  0.453678101, 0.0197194051
   1740,   0.23707132, 0.0254816506
   1741,  0.454593211, 0.0159366261
   1742,  0.457191467, 0.00323504978
   1743,  0.424828053, 0.0212600604
   1744,  0.215143576, 0.0158462785
   1745,  0.210938141, 0.0134892305
   1746,   0.20593439,  0.014638056
   1747,  0.267976016, 0.0269482397
   1748,  0.249142021, 0.0262198802
   1749,  0.431730062,  0.020324992
   1750,  0.258567721, 0.0142778037
   1751,  0.229090825, 0.0130757112
   1752,  0.406116903,  0.024802627
   1753,  0.340230733,  0.018499909
   1754,  0.225210741, 0.0159808435
   1755,  0.415703297, 0.0268999003
   1756,   0.25673449, 0.0247330423
   1757,  0.328887373, 0.0217494499
   1758,  0.259813666, 0.0210890044
   1759,  0.239864036, 0.0194691662
   1760,    0.2350436, 0.0202500448
   1761,  0.279649049, 0.0207889825
   1762,   0.17037338, 0.0184074603
   1763,  0.249584094, 0.0181117188
   1764,  0.228142187, 0.0184308551
   1765,  0.207259104, 0.0102192331
   1766,  0.424756646, 0.0262973104
   1767,  0.167057097, 0.0169783123
   1768,  0.218353435, 0.0175616983
   1769,  0.415207952, 0.0229675211
   1770,  0.179548666, 0.0278344359
   1771,  0.255972177, 0.0178020261
   1772,  0.172868744, 0.0195266046
   1773,  0.243726343, 0.0178581588
   1774,  0.285921931, 0.0232690386
   1775,  0.435502231, 0.0228734948
   1776,   0.18094489, 0.0189403296
   1777, 0.00395129016, 0.00187437772
   1778, 0.0044796071, 0.00356229628
   1779, 0.00900175609, -0.00220832252
   1780,  0.989199638, -0.000148308492
   1781,  0.987952709, 0.00059112208
   1782, 0.0141401142, -0.00244679279
   1783,  0.647188425, 0.0317406319
   1784,  0.596705377, 0.0352784097
   1785,   0.39645952, 0.0448187925
   1786, 0.00425693253, -0.000608866743
   1787, 0.00792916492, 0.00485869963
   1788,  0.790710628, 0.0159264319
   1789,  0.248538002, 0.0409929045
   1790,  0.535365641, 0.0341734141
   1791, 0.0346394517, -0.00143719802
   1792,  0.177125081, 0.0360184535
   1793,  0.311067134, 0.0420869067
   1794, 0.0824376345, 0.0241879057
   1795,  0.656833708, 0.0131277926
   1796,  0.111949563, -0.00350965722
   1797,  0.196604982, -0.00361075252
   1798,  0.456416875, 0.00764946314
   1799,  0.489829004, 0.00897121523
   1800,  0.225979894, 0.0376599357
   1801,   0.23071903, 0.0375220254
   1802,  0.287409365, 0.000443275349
   1803,  0.203288093, 0.00329084415
   1804,  0.651860952, 0.0223437231
   1805,  0.593066752, 0.0271184705
   1806,   0.14872466, 0.0280236788
   1807,  0.723392069, 0.0172910597
   1808,  0.446323156, 0.0326616466
   1809,  0.182045206, 0.0323292427
   1810,   0.18606782, 0.0322470479
   1811,  0.685039341, 0.0168696772
   1812,  0.661767244, 0.0175124388
   1813,  0.641875207,   0.01798415
   1814,  0.552427471, 0.0144620277
   1815,  0.282977879, 0.00420259871
   1816,  0.293361038, 0.00585631235
   1817,  0.309184402, 0.0147398394
   1818,  0.305152714,  0.015759578
   1819,  0.133666098, 0.0210151896
   1820,  0.592033386, 0.0239835754
   1821,  0.595909119, 0.0235314239
   1822, 0.0294915233, 0.00945878495
   1823,  0.683284402, 0.0199996121
   1824,  0.680448294, 0.0189256649
   1825, 0.0352186263, 0.00230475119
   1826,  0.191851854, 0.00115320156
   1827,  0.339582711, 0.0066597918
   1828,  0.234817266, 0.00432815077
   1829,  0.490629554, 0.0122674759
   1830,  0.278374702, 0.0306803826
   1831,  0.218027115, 0.00325031136
   1832,  0.527350068, 0.0122169349
   1833,  0.200383857, 0.0277293678
   1834,  0.306436747, 0.0387511887
   1835,   0.45551607, 0.0119255185
   1836,  0.451184243, 0.0114637231
   1837,  0.549536467, 0.0186890997
   1838,  0.546726108,  0.020813223
   1839,  0.529124975, 0.0303413998
   1840,  0.306066811, 0.0193153359
   1841,  0.246002197, 0.0215669181
   1842, 0.0659618378, 0.0162270721
   1843,  0.189374581, 0.0277259778
   1844,  0.196451098, 0.0250538122
   1845,  0.233665809, 0.00905043166
   1846,  0.226030305, 0.00785967894
   1847,  0.222134098, 0.00770405168
   1848,  0.293769211, 0.0185374673
   1849,  0.551874757, 0.0207434818
   1850,  0.458319634, 0.0168792754
   1851,   0.49183315, 0.0219992753
   1852,  0.303779215, 0.0241702292
   1853,  0.309693187, 0.0302298423
   1854,  0.165076971, 0.0208283942
   1855,  0.286349714, 0.00786006823
   1856,  0.450668097, 0.0155651979
   1857,  0.446760535, 0.0159765501
   1858,  0.403033763,  0.020043198
   1859,  0.268359959, 0.0153343752
   1860,   0.10796503, 0.0150430659
   1861,  0.185558856, 0.0246302839
   1862,  0.188779667, 0.0243373364
   1863,   0.19163689, 0.0231674071
   1864,   0.19934918, 0.0208880976
   1865,  0.236158684, 0.0146900211
   1866,  0.103553839, 0.0128019815
   1867,  0.271763295, 0.0230649319
   1868,  0.317662358, 0.0258937441
   1869,  0.474718153, 0.0292915255
   1870,  0.268715322, 0.0238024481
   1871,  0.132645726, 0.00877267774
   1872,  0.343796134, 0.0110076871
   1873, 0.0746280178, 0.0154717937
   1874, 0.0634705648,  0.010458258
   1875,  0.218478024, 0.0124430349
   1876,  0.324456185, 0.0345690809
   1877, 0.0606993884, 0.00509611657
   1878,  0.511183321, 0.0279631186
   1879,  0.157579705, 0.00357805891
   1880,  0.372101545, 0.0230167639
   1881,  0.231855437, 0.0175472684
   1882,  0.526179731, 0.0166571159
   1883,  0.176278204, 0.0177602936
   1884,  0.450708538, 0.0188881271
   1885,  0.402232677, 0.0147383623
   1886,  0.222036526, 0.0122927651
   1887,  0.273996413, 0.0182453077
   1888,  0.343199193, 0.0141126728
   1889,  0.495656341, 0.0289761294
   1890,  0.169565618, 0.0147618651
   1891,   0.17257756, 0.0156926308
   1892,  0.413535297, 0.0192477964
   1893,  0.518621802, 0.0233209953
   1894,  0.505099475, 0.0206972566
*Element, type=CPS3
 1,    1,  718,  264
 2, 1608, 1395,  490
 3, 1294, 1141, 1219
 4, 1770,  449, 1253
 5,  743,  247,  709
 6, 1132,  323, 1788
 7, 1823, 1485, 1199
 8, 1469, 1463,  351
 9, 1415, 1223,  296
10, 1568, 1482, 1561
11, 1692, 1607,  356
12, 1428,  294, 1338
13, 1658, 1547, 1433
14, 1257, 1647, 1438
15, 1659, 1458, 1480
16, 1837, 1470, 1849
17, 1879, 1471, 1628
18, 1638,  277, 1390
19, 1678,  426, 1534
20, 1719, 1486,  417
21,  717,  261,  262
22, 1319, 1445, 1407
23,  439, 1848, 1702
24, 1565,  415, 1849
25, 1682, 1861,  449
26, 1589, 1868, 1633
27, 1729, 1609, 1623
28, 1862, 1713, 1863
*Element, type=CPS4R
  29,  717, 1780,  718, 1781
  30,  717,  262,  263, 1780
  31,  264,  718, 1780,  263
  32,  259,  716,  575,    4
  33,  258,  715,  576,    5
  34,    5,    6,  257,  258
  35,  256,  714,  577,    7
  36,  255,  256,    7,    8
  37,  578,    9,  254,  713
  38,  712,  998, 1011,  253
  39,   11,  839,  740,   10
  40,  839,   11,  580,  840
  41,  711,  839,  840,  251
  42,  251,  840,  838,  250
  43,  253, 1011,  740,  252
  44,  254,    9,  998,  712
  45,   13,  741,  838,   12
  46,  581,  742,  741,   13
  47,  710,  741,  742,  249
  48,  249,  742,  837,  248
  49,  744, 1026,  316,  834
  50,  316,   17,  583,  739
  51,  739,  583,   18,  317
  52,  317,   18,  584,  841
  53,  318,  747,  745,  841
  54,  244,  745,  747,  243
  55,  745,  244,  707,  746
  56,  835,  739,  317,  746
  57,  739,  835,  834,  316
  58,  708,  744,  834,  246
  59,  836, 1366,  743,  709
  60,  582, 1366,  836,   15
  61,  318,   19,   20,  999
  62,  999,   20,  585, 1043
  63,  750,  706,  243,  747
  64,  749,  750,  999, 1043
  65,  842,   21,   22,  843
  66, 1098,  319,  751,  748
  67,   23,  845,  844,  586
  68,  321, 1016,  847,  848
  69,   25,  848,  847,  587
  70,  848,  849, 1093,  321
  71,   26,  849,  848,   25
  72,  588,  850,  849,   26
  73,   27,  852,  850,  588
  74,  850,  852, 1162,  322
  75,  702,  760,  763,  235
  76,  758,  759,  322, 1162
  77,  758,  236,  237,  759
  78,  703,  756,  759,  237
  79,  754,  238,  704,  755
  80,  753,  239,  240,  752
  81,  844,  845, 1034,  319
  82,  845,   23,   24,  846
  83,  589,  865,  852,   27
  84,   29,  393,  851,   28
  85,  393,   29,  590,  854
  86,  394,   30,   31,  727
  87, 1033,  727,  395, 1167
  88,  738,   32,   33,  396
  89,  396,   33,  592,  862
  90, 1017,  862,  397, 1377
  91,  833,  832,  328, 1149
  92,  799,  229,  230,  818
  93,  799,  818,  327, 1067
  94,  824,  828,  326, 1051
  95, 1174,  325, 1033, 1167
  96,  701,  777,  783,  233
  97,  235,  763,  767,  234
  98,  763,  323, 1430,  767
  99, 1132,  851,  393, 1254
 100,   30,  394,  854,  590
 101, 1161,  394,  727, 1033
 102,  325, 1182, 1161, 1033
 103,  727,   31,  591,  395
 104,  397,   34,   35, 1520
 105, 1520,   35,  593,  857
 106, 1009, 1239,  329, 1149
 107,  227,  774,  765,  697
 108,  772,  811,  330, 1066
 109,  857, 1009, 1289, 1520
 110, 1191,   36,  594,  863
 111,  863,  853,  399, 1038
 112,   38,  855,  853,   37
 113,   40,  860,  856,   39
 114,  864,  596,   41,  858
 115,  596,  864,  860,   40
 116,  858,   41,   42,  861
 117,  858,  861, 1156,  402
 118, 1213, 1824,  403, 1387
 119,  221,  694,  829,  819
 120,  332, 1068,  798,  813
 121,  798,  822,  222,  223
 122, 1208,  401, 1063, 1376
 123, 1485, 1823, 1811, 1376
 124,  597,  984,  861,   42
 125,  598,  983,  985,   43
 126,   43,  985,  984,  597
 127, 1215,  404, 1399, 1228
 128,  806,  804,  219,  693
 129,   44,  982,  983,  598
 130,   45,  981,  982,   44
 131,  981,  980, 1113, 1114
 132,   47,  462, 1783,   46
 133,  462,   47,  600, 1002
 134, 1002,  600,   48,  463
 135,  463,   48,   49,  978
 136, 1020,  978,  464, 1249
 137,  339, 1184, 1299, 1437
 138,  766,  757, 1184,  339
 139, 1184,  757,  761,  338
 140,  761,  757,  690,  215
 141,  773,  788,  691,  216
 142,  773,  770, 1180,  337
 143,  791,  784,  692,  218
 144,  804,  791,  218,  219
 145,  791,  804, 1173, 1795
 146,  336, 1795, 1259, 1406
 147, 1196, 1205, 1804, 1113
 148, 1144, 1002,  463, 1288
 149, 1138, 1144, 1237,  406
 150,  978, 1020, 1288,  463
 151,  601,  464,  978,   49
 152,   50,  977,  464,  601
 153, 1047,  977,  465, 1266
 154,  340, 1091, 1283, 1414
 155,  764,  762,  212,  689
 156,   51,  465,  977,   50
 157,  465,   51,  602,  976
 158, 1192,   52,   53, 1784
 159,  975, 1784, 1352,  467
 160,  974,  972,  468, 1185
 161,   56,  970,  971,   55
 162,  970,  469, 1198,  971
 163,  970,   56,  605,  968
 164,  967,  470, 1112,  968
 165, 1225, 1112,  470, 1417
 166, 1380,  344, 1497, 1583
 167,  801,  809,  206,  207
 168,  797,  801,  207,  686
 169,  793,  797,  686,  208
 170,  778,  786,  687,  209
 171,  776,  780,  210,  688
 172,  762,  771,  211,  212
 173, 1203,  342, 1087, 1088
 174, 1185, 1459,  411,  467
 175, 1323, 1198,  469, 1356
 176, 1323, 1410,  412, 1300
 177, 1112, 1225, 1356,  469
 178,   58,  966,  967,   57
 179,  964,  471, 1111,  966
 180,   59,  962,  964,  606
 181,   60,  960,  962,   59
 182,  607,  959,  960,   60
 183,  960,  472, 1110,  962
 184, 1110,  472, 1450, 1311
 185, 1206, 1412, 1605,  347
 186,  825, 1187,  684,  204
 187,  202,  203,  315,  994
 188,  203,  684, 1187,  315
 189,  816,  825,  204,  205
 190,  812,  816,  205,  685
 191,  809,  812,  685,  206
 192, 1074, 1073,  825,  816
 193, 1814, 1074, 1076, 1375
 194,  346, 1412, 1206, 1073
 195,   61,  956,  959,  607
 196,   62,  955,  956,   61
 197,  956, 1109, 1790,  959
 198, 1839, 1109, 1275,  473
 199,  348, 1832, 1418, 1882
 200,  347, 1235, 1135, 1206
 201,  201,  683,  314,  736
 202,  608,  952,  955,   62
 203, 1107, 1108,  952,  953
 204, 1369, 1597, 1487,  473
 205, 1444,  349, 1333, 1486
 206, 1029,  313,  736, 1168
 207,  200,  201,  736,  313
 208, 1108, 1107,  474, 1369
 209,  514,   64,   65,  731
 210,  610,  515,  731,   65
 211,  733,   66,   67,  516
 212,  516,   67,  611,  986
 213,  986,  517, 1158, 1042
 214, 1479, 1337,  478, 1869
 215, 1372, 1451,  353, 1251
 216, 1040,  309,  827, 1159
 217,  309,  995,  679,  195
 218,  195,  196,  827,  309
 219,  310,  827,  196,  680
 220,  197,  198,  311,  830
 221,  312,  814,  681,  199
 222,  992, 1154, 1056,  312
 223,  199,  682,  992,  312
 224, 1154,  992,  313, 1029
 225, 1456,  350, 1342, 1475
 226, 1260,  476, 1889, 1488
 227, 1303, 1123, 1146,  477
 228,  516,  986, 1042, 1146
 229,  517,   68,   69,  866
 230,  866,   69,  612,  518
 231,  866,  518, 1171, 1031
 232, 1357,  479, 1480, 1458
 233, 1578, 1584, 1517,  353
 234,  308,  995, 1028, 1234
 235,  193,  194,  308,  826
 236,  194,  679,  995,  308
 237,  991,   70,   71,  519
 238,  519,   71,  613,  965
 239,  520,   72,  614, 1661
 240,   74, 1178,  942,   73
 241, 1178,   74,  615,  987
 242,  987,  615,   75, 1116
 243, 1116,   75,   76,  973
 244,  973, 1050,  522, 1116
 245, 1267, 1434, 1050,  523
 246,  484, 1620, 1434, 1267
 247, 1723, 1657,  358, 1734
 248, 1166,  304, 1345, 1441
 249,  796,  187,  675, 1270
 250,  187,  796,  794,  186
 251,  303,  794,  796, 1166
 252,  785,  188,  189, 1069
 253,  676,  805, 1069,  189
 254,  191,  810, 1070,  190
 255, 1013,  810, 1677, 1574
 256,  192,  678, 1742,  307
 257,  678,  193,  826, 1742
 258, 1798, 1742,  826, 1007
 259, 1563,  356, 1240, 1421
 260, 1534, 1738,  482, 1678
 261, 1244, 1427, 1014,  522
 262,  616, 1118,  973,   76
 263,  949, 1148,  523, 1118
 264, 1440, 1290,  485, 1656
 265, 1690, 1752, 1656,  485
 266,  360, 1885, 1556, 1858
 267,  303, 1296, 1526, 1176
 268,  674,  768,  769,  185
 269,  768,  674,  186,  794
 270,   78,  957,  949,   77
 271,  949,  957,  524, 1148
 272, 1175,  944,  525, 1640
 273, 1189,  927,  935,  526
 274,  526,  935,  941, 1099
 275,  913,   82,   83,  930
 276,  930,   83,  620,  932
 277,  528,  930,  932, 1100
 278, 1100,  529, 1255, 1336
 279,  365, 1524, 1590, 1671
 280, 1077, 1295, 1436,  297
 281,  670,  808,  815,  178
 282,  180,  802,  807,  179
 283,  299, 1080,  795,  789
 284,  789,  787, 1082,  299
 285, 1341, 1082,  300, 1221
 286, 1515,  362, 1626, 1614
 287, 1388, 1585, 1644,  487
 288, 1361, 1099,  527, 1209
 289,  619,  917,  941,   81
 290,  922,   84,   85,  923
 291, 1103,  929,  928,  531
 292,  622,  931,  928,   87
 293,   88,  933,  931,  622
 294,  938,  623,   90,  940
 295, 1041,  936,  938, 1793
 296,  940,   90,  624,  943
 297,  533,  940,  943, 1179
 298,  534, 1445, 1319, 1179
 299, 1407,  495, 1650, 1569
 300, 1653, 1702, 1848,  369
 301,  292, 1816, 1442, 1416
 302, 1032,  901,  573, 1371
 303,  666,  572, 1005,  171
 304,  901,  172,  173,  573
 305,  573,  173,  667,  730
 306,  574,  174,  175,  723
 307,  990,  668,  176,  823
 308,  177,  817,  820,  669
 309,  178,  815,  817,  177
 310, 1291, 1223, 1611,  295
 311, 1853, 1642, 1732, 1589
 312, 1407, 1569,  494, 1319
 313,  946,   91,   92,  947
 314, 1186, 1528, 1445,  534
 315,  496, 1553, 1528, 1312
 316,  369, 1718, 1538, 1416
 317, 1416, 1855, 1231,  292
 318, 1005,  572, 1151, 1802
 319,  571,  170,  171, 1005
 320,  534,  946,  947, 1186
 321,   93,  954,  948,  625
 322,  963,  536, 1190,  954
 323,   96,  979, 1117,   95
 324, 1030,  979, 1119,  538
 325,  969,   97,   98, 1679
 326,  628,  539, 1679,   98
 327,   99,  961,  539,  628
 328, 1373, 1023, 1429, 1736
 329,  500, 1548, 1429, 1250
 330, 1759, 1760, 1865, 1735
 331, 1579, 1693, 1398,  287
 332,  566, 1000, 1127, 1280
 333,  163,  164,  566,  899
 334,  164,  662, 1000,  566
 335,  165,  166,  996,  567
 336,  166,  663,  568,  996
 337,  167,  664,  569,  900
 338,  169,  570, 1004,  168
 339,  570,  169,  665, 1003
 340, 1003,  665,  170,  571
 341, 1490, 1273,  290, 1433
 342, 1750, 1771,  372, 1696
 343,  499, 1582, 1424, 1577
 344, 1736, 1429, 1548, 1740
 345,  629,  540,  961,   99
 346,  950,  540,  629,  100
 347,  950,  541, 1025, 1800
 348, 1523,  501, 1581, 1558
 349, 1764, 1751,  374, 1881
 350, 1689, 1846, 1571, 1751
 351,  565,  899, 1145, 1287
 352,  162,  661,  565, 1006
 353,  101,  541,  950,  100
 354,  541,  101,  630,  945
 355,  542,  102,  103,  939
 356,  631,  543,  939,  103
 357,  105,  544,  934,  104
 358,  544,  105,  632,  729
 359,  106,  545,  729,  632
 360,  545,  106,  107,  722
 361,  722,  107,  633,  735
 362, 1792, 1054, 1379,  505
 363, 1492, 1379, 1498, 1600
 364, 1600, 1498, 1720,  450
 365,  280, 1464, 1587, 1598
 366,  561, 1230, 1328, 1045
 367,  892,  891,  657,  156
 368,  893,  892,  156,  157
 369,  894,  893,  157,  658
 370,  658,  158,  895,  894
 371, 1230, 1344, 1454,  281
 372, 1454,  282, 1646, 1575
 373, 1682,  449, 1542, 1776
 374, 1492, 1770,  505, 1379
 375,  729,  545,  732, 1188
 376, 1165, 1188, 1810,  504
 377,  735,  633,  108,  925
 378,  634,  924,  925,  108
 379,  109,  921,  924,  634
 380,  635,  919,  920,  110
 381,  112,  916,  918,  111
 382,  636,  914,  916,  112
 383,  914,  636,  113, 1278
 384, 1278,  113,  114,  915
 385,  510, 1278,  915, 1128
 386, 1391, 1370, 1128, 1282
 387, 1391,  456, 1586, 1560
 388, 1627, 1439, 1596, 1675
 389, 1307, 1193,  556, 1365
 390,  880,  879,  148,  653
 391,  149,  654,  881,  887
 392,  555,  887,  881, 1193
 393,  882,  885,  151,  655
 394, 1104,  885,  882,  557
 395,  890,  558, 1048,  884
 396,  886,  559, 1105,  889
 397,  888,  886,  154,  155
 398,  891,  888,  155,  657
 399,  888, 1055,  559,  886
 400, 1595, 1632, 1411,  279
 401, 1514,  454, 1622, 1612
 402, 1353, 1462, 1819, 1217
 403, 1282,  511,  911, 1153
 404,  637,  511,  915,  114
 405,  115,  911,  511,  637
 406,  512, 1125, 1153,  911
 407, 1201,  457, 1466, 1468
 408, 1613, 1621, 1519,  275
 409,  554, 1061, 1207, 1359
 410, 1061,  879,  880, 1796
 411,  116,  512,  911,  115
 412,  512,  116,  638,  726
 413,  513,  117,  118,  720
 414,  639,  737,  720,  118
 415,  910,  909, 1057, 1794
 416,  909,  907,  460, 1057
 417,  641,  461,  908,  121
 418,  912,  642,  124,  988
 419, 1233,  912,  988, 1046
 420,  988,  124,  125,  903
 421,  903,  125,  643,  392
 422,  391, 1491, 1378, 1317
 423,  997, 1131, 1791,  547
 424,  547,  993,  647,  138
 425,  138,  139,  997,  547
 426,  139,  648,  548,  997
 427,  874, 1058,  549, 1133
 428, 1064,  869,  868,  550
 429,  142,  650,  870,  868
 430,  876,  870,  650,  143
 431,  871,  872,  144,  651
 432, 1071,  872,  871,  552
 433, 1274, 1322, 1489,  271
 434, 1604, 1625, 1420,  388
 435, 1057, 1269, 1324, 1794
 436,  909,  640,  120,  907
 437,  988,  903,  391, 1046
 438, 1195,  126,  127,  905
 439,  128,  902,  904,  644
 440,  645,  265,  902,  128
 441,  728,  724, 1024,  266
 442,  136,  137,  546,  867
 443,  993,  546,  137,  647
 444,  993,  547, 1791, 1143
 445,  644,  904,  905,  127
 446,  902,  265,  724,  728
 447,  721, 1787, 1778, 1777
 448,  131,  132,  719, 1777
 449,  719,  132,  133, 1786
 450, 1024,  724, 1782,  867
 451,  873,  871,  651,  145
 452, 1096,  873,  875,  553
 453, 1096,  553, 1343, 1238
 454, 1603, 1629, 1550,  387
 455, 1506,  459, 1794, 1324
 456,  458,  734, 1059, 1349
 457,  875,  873,  145,  146
 458,  553,  875,  878, 1095
 459,  652,  147,  877,  878
 460,  553, 1095, 1218, 1343
 461, 1095,  554, 1359, 1218
 462,  273, 1516, 1602,  386
 463, 1637, 1866, 1544, 1602
 464, 1332,  458, 1493, 1544
 465,  513,  734, 1183,  726
 466,  117,  513,  726,  638
 467, 1019,  894,  895,  562
 468,  562,  895,  896, 1194
 469,  897, 1276,  563, 1797
 470, 1339,  898,  660,  161
 471,  161,  162, 1006, 1339
 472, 1006, 1157,  564, 1339
 473,  283, 1803, 1681, 1707
 474, 1862, 1861, 1682, 1713
 475, 1394,  283, 1655, 1562
 476,  282, 1394, 1562, 1646
 477, 1194, 1826, 1329,  562
 478, 1660,  898, 1339,  564
 479, 1803, 1660, 1536, 1681
 480,  283, 1335, 1457, 1803
 481,  672,  790,  787,  182
 482,  790,  779, 1085,  300
 483, 1355, 1085,  301, 1325
 484,  361, 1639, 1508, 1355
 485, 1652, 1405, 1566, 1667
 486, 1189,  526, 1318, 1405
 487,  927,   80,  618,  935
 488,  673,  775,  779,  183
 489,  185,  769,  782,  184
 490,  184,  782,  775,  673
 491, 1172,  302, 1305, 1408
 492,  360, 1408, 1305, 1885
 493, 1325, 1567,  361, 1355
 494, 1408,  360, 1700, 1651
 495,  485, 1525, 1557, 1690
 496,  937,  525,  944, 1785
 497,  822,  798, 1068,  333
 498,  226,  811,  772,  225
 499,  697,  765,  811,  226
 500,  399, 1224, 1331, 1038
 501,  863,  594,   37,  853
 502,  705,  751,  752,  240
 503, 1098,  748,  842,  843
 504,  242,  749,  748,  241
 505,  248,  837,  836,  709
 506,    6,  577,  714,  257
 507,    4,  576,  715,  259
 508,    3,  575,  716,  260
 509,    8,  578,  713,  255
 510,  904,  266, 1052,  905
 511,  546, 1126, 1024,  867
 512,  548,  874, 1133, 1285
 513, 1131,  997,  548, 1285
 514,  869, 1064,  549, 1058
 515,  268, 1232, 1317, 1378
 516, 1822, 1491,  392, 1195
 517, 1363, 1393, 1133,  549
 518,  870, 1060,  550,  868
 519, 1403, 1503, 1473, 1877
 520, 1046, 1232,  390, 1233
 521, 1473, 1348, 1227, 1877
 522, 1625, 1489,  272, 1603
 523, 1561, 1482,  271, 1604
 524, 1304,  390, 1503, 1403
 525, 1403, 1874,  389, 1304
 526, 1227, 1327,  270, 1877
 527, 1274, 1265,  551, 1071
 528, 1603,  272, 1505, 1629
 529, 1061, 1796, 1413, 1207
 530, 1210, 1365,  556, 1104
 531, 1306, 1307, 1439,  275
 532, 1390,  278, 1594, 1638
 533, 1048, 1222, 1354,  557
 534,  890,  884,  152,  153
 535, 1210, 1104,  557, 1354
 536, 1871, 1641,  276, 1384
 537,  276, 1596, 1439, 1307
 538, 1222, 1048,  558, 1340
 539, 1105, 1242, 1340,  558
 540, 1242, 1105,  559, 1321
 541, 1598, 1628, 1471,  280
 542, 1522,  453, 1631, 1591
 543, 1094,  509, 1334, 1258
 544, 1092,  510, 1353, 1217
 545,  280, 1471, 1281, 1263
 546, 1464,  281, 1635, 1587
 547,  281, 1454, 1575, 1635
 548,  562, 1329, 1344, 1019
 549, 1263, 1328, 1464,  280
 550, 1401, 1559, 1875, 1730
 551, 1709, 1539,  448, 1864
 552, 1314, 1120, 1477, 1447
 553, 1844, 1704, 1864,  448
 554, 1157, 1831, 1367,  564
 555, 1145,  899,  566, 1280
 556,  567,  996, 1039, 1262
 557, 1127, 1000,  567, 1262
 558, 1555, 1750, 1696, 1385
 559, 1018,  568,  900, 1246
 560,  996,  568, 1247, 1039
 561, 1649, 1402, 1588, 1662
 562, 1246,  900,  569, 1140
 563, 1004, 1134, 1140,  569
 564, 1273, 1140, 1134,  290
 565, 1243, 1423, 1433,  290
 566, 1859, 1706, 1715,  371
 567, 1577, 1424, 1012, 1789
 568, 1023, 1801, 1250, 1429
 569, 1003, 1313, 1137,  570
 570, 1005, 1802, 1136,  571
 571, 1302, 1032,  293, 1483
 572, 1338, 1504, 1610, 1428
 573,  295, 1504, 1338, 1102
 574,  723,  175,  668,  990
 575,  989, 1197,  730,  574
 576,  293, 1197, 1264, 1527
 577,  723, 1102,  989,  574
 578, 1271, 1072,  820,  817
 579, 1546, 1827, 1286, 1872
 580, 1570, 1683,  367, 1611
 581, 1633, 1509,  493, 1510
 582, 1793, 1360, 1212, 1041
 583, 1075,  815,  808,  297
 584,  298, 1077,  807,  802
 585, 1248,  299, 1082, 1341
 586, 1316, 1080,  299, 1248
 587, 1295, 1077,  298, 1298
 588, 1298,  298, 1080, 1316
 589,  671,  795,  802,  180
 590, 1221,  300, 1085, 1355
 591, 1502, 1256,  357, 1734
 592, 1441, 1345,  358, 1657
 593,  805, 1036,  305, 1069
 594,  428, 1769, 1755, 1697
 595,  305, 1256, 1502, 1374
 596,  307, 1573, 1574, 1677
 597, 1574, 1573, 1836,  355
 598,  810,  191,  677, 1677
 599, 1036,  805, 1070,  306
 600, 1829, 1799, 1062,  351
 601, 1159,  827,  310, 1799
 602,  814, 1130, 1142,  311
 603, 1200, 1463, 1472,  352
 604,  352, 1484, 1372, 1040
 605,  680,  197,  830,  310
 606,  312, 1056, 1130,  814
 607, 1079,  801,  797, 1081
 608, 1202,  344, 1081, 1083
 609, 1497,  413, 1383, 1583
 610,  786,  793,  208,  687
 611,  771,  776,  688,  211
 612,  771, 1272, 1088,  776
 613,  209,  210,  780,  778
 614,  757,  766,  214,  690
 615, 1090, 1315, 1443,  338
 616, 1184,  338, 1443, 1299
 617,  770,  773,  216,  217
 618,  784,  770,  217,  692
 619,  819,  829, 1155,  334
 620,  696,  781,  831,  224
 621,  783,  777,  324, 1182
 622,  803,  800,  325, 1174
 623,  326, 1174, 1167, 1021
 624,  738, 1021, 1167,  395
 625,  396, 1177, 1021,  738
 626,  862, 1017, 1177,  396
 627,  818,  824, 1051,  327
 628,  774,  833, 1149,  329
 629, 1010, 1347, 1224,  399
 630, 1181, 1294, 1219,  400
 631, 1066, 1224, 1347,  331
 632,  806,  821, 1164,  335
 633, 1180,  770,  784,  336
 634, 1297, 1205,  406, 1813
 635, 1237,  407, 1443, 1315
 636,  773,  337, 1090,  788
 637,  766,  339, 1091,  792
 638, 1272, 1089, 1214,  341
 639, 1358, 1821,  410, 1279
 640,  604,  972,  974,   54
 641,  468, 1300, 1459, 1185
 642, 1204,  343, 1084, 1086
 643,  786, 1084, 1083,  793
 644,  315, 1135, 1235,  994
 645, 1168,  736,  314, 1152
 646, 1216, 1461, 1469,  351
 647, 1303,  477, 1478, 1448
 648,  477, 1337, 1452, 1478
 649, 1062,  830,  311, 1142
 650, 1028,  995,  309, 1251
 651, 1007,  826,  308, 1234
 652, 1850, 1419,  354, 1532
 653, 1580, 1643, 1691,  424
 654,  521, 1008,  942, 1178
 655, 1426, 1036,  306, 1240
 656, 1426, 1607,  357, 1256
 657,  483, 1554, 1427, 1244
 658, 1434, 1620,  483, 1244
 659,  362, 1508, 1592, 1626
 660,  363, 1515, 1614, 1618
 661,  363, 1618, 1619, 1518
 662,  364, 1636, 1590, 1524
 663, 1286, 1075,  297, 1436
 664, 1888, 1671, 1753,  366
 665, 1507,  492, 1623, 1609
 666,  532, 1346, 1229, 1124
 667, 1041, 1212, 1346,  532
 668, 1223, 1415, 1570, 1611
 669, 1264, 1197,  989,  294
 670, 1818, 1817, 1680, 1840
 671, 1653, 1483, 1717, 1702
 672, 1243,  291, 1496, 1423
 673, 1547, 1658, 1708, 1887
 674, 1747, 1647, 1698,  442
 675, 1030, 1431, 1257,  537
 676, 1577,  539, 1373,  499
 677,  288, 1588, 1402, 1247
 678, 1773, 1662, 1763, 1841
 679,  445, 1760, 1740, 1548
 680, 1396,  286, 1571, 1846
 681, 1831, 1559, 1401, 1367
 682,  446, 1545, 1714, 1768
 683, 1455,  503, 1147, 1314
 684,  504, 1477, 1120, 1165
 685, 1455, 1314, 1447, 1833
 686, 1765, 1746, 1707, 1681
 687, 1776, 1542,  450, 1883
 688, 1767, 1672,  379, 1890
 689, 1097,  508, 1806, 1309
 690,  277, 1638, 1871, 1384
 691, 1462,  455, 1648, 1819
 692, 1391, 1560,  455, 1370
 693, 1533, 1860,  385, 1621
 694, 1544, 1493,  386, 1602
 695, 1550, 1349, 1506,  387
 696, 1269, 1057,  460, 1350
 697, 1233, 1139,  906,  912
 698, 1139, 1169, 1001,  906
 699, 1027, 1392, 1350,  460
 700, 1132, 1788,  865,  851
 701,  853,  855, 1010,  399
 702,  401, 1181,  856,  860
 703, 1387, 1228, 1164,  334
 704, 1173,  335, 1399, 1812
 705,  462, 1138, 1196, 1783
 706, 1180,  336, 1406, 1297
 707, 1283, 1091,  339, 1437
 708, 1414,  409, 1630, 1214
 709,  466, 1121,  976, 1192
 710, 1358, 1279,  466,  975
 711, 1805, 1820, 1821, 1358
 712, 1512, 1576, 1203,  341
 713, 1459, 1564, 1674,  411
 714, 1549, 1565, 1849, 1470
 715, 1268, 1111,  471, 1435
 716, 1435,  471, 1110, 1311
 717, 1235,  347, 1499, 1418
 718, 1486, 1333,  348, 1882
 719, 1475, 1342,  349, 1444
 720, 1878, 1465,  474, 1382
 721, 1260, 1293, 1163,  476
 722, 1461, 1216,  350, 1456
 723,  351, 1463, 1200, 1829
 724, 1584, 1578, 1659,  423
 725, 1368,  480, 1453, 1481
 726, 1015,  965,  520, 1381
 727, 1008,  521, 1236, 1422
 728, 1494, 1661,  942, 1008
 729, 1421,  355, 1857, 1563
 730,  356, 1607, 1426, 1240
 731, 1743, 1734,  357, 1684
 732,  359, 1556, 1526, 1296
 733, 1557, 1525,  486, 1727
 734, 1566, 1405, 1318,  487
 735, 1585, 1388,  488, 1634
 736, 1389, 1599, 1634,  488
 737, 1395, 1608, 1624,  489
 738, 1599, 1389,  489, 1624
 739, 1888, 1872,  365, 1671
 740,  491, 1617, 1615, 1400
 741, 1103,  531, 1330, 1261
 742, 1124,  931,  933,  532
 743,  531, 1124, 1229, 1330
 744, 1683, 1570,  366, 1753
 745,  367, 1705, 1610, 1504
 746, 1718,  369, 1848, 1703
 747,  370, 1716, 1708, 1658
 748, 1616, 1721, 1867,  441
 749,  497, 1284, 1438, 1647
 750,  979,   96,  627, 1119
 751, 1030,  538, 1241, 1431
 752, 1547, 1887, 1706, 1859
 753, 1756,  443, 1771, 1758
 754, 1773, 1841,  444, 1759
 755, 1754, 1764, 1694, 1711
 756,  447, 1714, 1545, 1460
 757, 1364,  502, 1474, 1460
 758,  939,  543, 1044, 1160
 759, 1120,  934,  544, 1165
 760, 1712, 1539, 1709, 1746
 761, 1498, 1379,  506, 1606
 762, 1767, 1854, 1673, 1672
 763, 1310, 1101,  507, 1446
 764,  921,  920, 1097,  507
 765,  507, 1097, 1309, 1446
 766,  452, 1522, 1591, 1673
 767,  453, 1514, 1612, 1631
 768,  454, 1819, 1572, 1622
 769, 1125, 1183,  457, 1201
 770,  737,  639,  119,  910
 771,  908, 1027,  460,  907
 772,  123,  906, 1001,  122
 773,  599,  980,  981,   45
 774,  977, 1047, 1249,  464
 775,  976,  602,   52, 1192
 776,  465,  976, 1121, 1266
 777, 1111, 1268, 1417,  470
 778,  606,  964,  966,   58
 779, 1790, 1326, 1450,  472
 780, 1108, 1369,  473, 1275
 781, 1551,  418, 1878, 1495
 782,  475, 1382, 1049, 1035
 783, 1123, 1163,  515,  733
 784,  476, 1303, 1448, 1889
 785,  478, 1357, 1458, 1869
 786, 1022,  991,  519, 1245
 787,  965, 1015, 1245,  519
 788, 1529, 1808, 1643, 1580
 789,  482, 1738, 1422, 1236
 790, 1427, 1554,  482, 1236
 791, 1440, 1656,  484, 1267
 792, 1226, 1351, 1122,  528
 793,  490, 1400, 1615, 1608
 794, 1150,  530, 1292, 1308
 795,  530, 1103, 1261, 1292
 796,  491, 1507, 1609, 1617
 797, 1601,  492, 1876, 1509
 798, 1589, 1633, 1510, 1853
 799,  495, 1528, 1553, 1701
 800, 1761, 1685, 1616,  441
 801,  496, 1312, 1449, 1830
 802, 1129,  958, 1117,  537
 803,  537, 1257, 1438, 1129
 804,  498, 1698, 1431, 1241
 805, 1582,  498, 1241, 1424
 806, 1523, 1558,  500, 1250
 807, 1364, 1460, 1581,  501
 808,  945,  542, 1037, 1252
 809, 1147, 1044,  543,  934
 810, 1476, 1220, 1455, 1539
 811, 1101, 1310,  506, 1432
 812,  507, 1101,  924,  921
 813, 1094, 1258, 1806,  508
 814,   63,  953,  952,  608
 815,  517,  866, 1031, 1158
 816,  991, 1022, 1171,  518
 817, 1150,  923,  926,  530
 818,   94,  963,  954,   93
 819,  954, 1190,  535,  948
 820, 1523, 1800, 1025,  501
 821,  945,  630,  102,  542
 822,  552, 1096, 1238, 1322
 823,  556,  883,  885, 1104
 824,  886,  889,  656,  154
 825,  896,  897, 1797, 1194
 826,  730,  667,  174,  574
 827,  669,  820,  823,  176
 828,  182,  787,  789,  181
 829,   12,  838,  840,  580
 830,   15,  836,  837,   14
 831,  841,  584,   19,  318
 832, 1043,  585,   21,  842
 833,  587,  847,  846,   24
 834,  395,  591,   32,  738
 835,  862,  592,   34,  397
 836,   36, 1191,  857,  593
 837,  859,  595,   39,  856
 838, 1352,  603,   54,  974
 839,  972,  604,   55,  971
 840,   57,  967,  968,  605
 841,  609,  951,  953,   63
 842,   64,  514,  951,  609
 843,  515,  610,   66,  733
 844,  986,  611,   68,  517
 845,  518,  612,   70,  991
 846,  965,  613,   72,  520
 847, 1661,  614,   73,  942
 848, 1118,  616,   77,  949
 849,  935,  618,   81,  941
 850,  917,  619,   82,  913
 851,   84,  922,  932,  620
 852,  621,  926,  923,   85
 853,  623,  938,  936,   89
 854,  958,  626,   95, 1117
 855,   97,  969, 1119,  627
 856,  543,  631,  104,  934
 857,  110,  920,  921,  109
 858,  111,  918,  919,  635
 859,  461,  641,  122, 1001
 860,  642,  912,  906,  123
 861,  392,  643,  126, 1195
 862,  645,  129, 1787,  265
 863,  648,  140,  874,  548
 864,  649,  141,  869, 1058
 865,  879,  877,  147,  148
 866,  653,  149,  887,  880
 867,  654,  150,  883,  881
 868,  884,  882,  655,  152
 869,  897,  896,  659,  159
 870,  661,  163,  899,  565
 871,  662,  165,  567, 1000
 872,  663,  167,  900,  568
 873,  569,  664,  168, 1004
 874,  572,  666,  172,  901
 875,  179,  807,  808,  670
 876,  181,  789,  795,  671
 877,  790,  672,  183,  779
 878, 1270,  675,  188,  785
 879,  805,  676,  190, 1070
 880,  192,  307, 1677,  677
 881,  682,  200,  313,  992
 882,  683,  202,  994,  314
 883,  766,  792,  213,  214
 884,  819,  821,  220,  221
 885,  695,  813,  798,  223
 886,  225,  772,  781,  696
 887,  229,  799,  832,  698
 888,  699,  824,  818,  230
 889,  232,  800,  803,  700
 890,  777,  701,  234,  767
 891,  236,  758,  760,  702
 892,  756,  703,  238,  754
 893,  239,  753,  755,  704
 894,  751,  705,  241,  748
 895,  746,  707,  245,  835
 896,  247,  743,  744,  708
 897,  252,  740,  839,  711
 898,    3,  260, 1781,    2
 899,  261,  717, 1781,  260
 900,  135, 1779,  725,  134
 901, 1786,  725, 1779,  721
 902,  720, 1059,  734,  513
 903,  732, 1792,  505, 1809
 904,  294,  989, 1102, 1338
 905,  721,  724,  265, 1787
 906,  724,  721, 1779, 1782
 907,  266,  904,  902,  728
 908,  730, 1197, 1371,  573
 909, 1293, 1260,  475, 1035
 910,  732,  545,  722, 1792
 911, 1146, 1123,  733,  516
 912, 1432, 1054,  735,  925
 913,  348, 1168, 1152, 1832
 914,  910,  119,  640,  909
 915,  737,  459, 1059,  720
 916,  741,  710,  250,  838
 917,  742,  581,   14,  837
 918,  841,  745,  746,  317
 919,  706,  750,  749,  242
 920,  842,  748,  749, 1043
 921,  750,  747,  318,  999
 922,  319, 1034,  752,  751
 923,  753,  320, 1016,  755
 924, 1016,  320,  846,  847
 925,  321, 1093,  756,  754
 926,  322, 1093,  849,  850
 927, 1788, 1162,  852,  865
 928,  323,  763,  760, 1788
 929,  215,  691,  788,  761
 930, 1089,  762,  764,  340
 931, 1272,  771,  762, 1089
 932, 1430,  323, 1132, 1254
 933,  689,  213,  792,  764
 934, 1091,  340,  764,  792
 935,  774,  227,  228,  833
 936,  811,  765, 1065,  330
 937,  324,  777,  767, 1430
 938, 1176,  768,  794,  303
 939,  302,  769,  768, 1176
 940,  782, 1172,  301,  775
 941,  776, 1088, 1087,  780
 942,  781,  772, 1066,  331
 943,  833,  228,  698,  832
 944,  765,  774,  329, 1065
 945,  779,  775,  301, 1085
 946, 1182,  324, 1053, 1161
 947,  778, 1086, 1084,  786
 948, 1087, 1086,  778,  780
 949,  331, 1141,  831,  781
 950,  769,  302, 1172,  782
 951,  325,  800,  783, 1182
 952,  304, 1270,  785, 1374
 953,  793, 1083, 1081,  797
 954,  300, 1082,  787,  790
 955,  761,  788, 1090,  338
 956,  784,  791, 1795,  336
 957,  802,  795, 1080,  298
 958, 1166,  796, 1270,  304
 959,  801, 1079, 1078,  809
 960,  813,  695,  224,  831
 961,  832,  799, 1067,  328
 962,  800,  232,  233,  783
 963, 1078, 1076,  812,  809
 964,  828,  803, 1174,  326
 965,  335, 1173,  804,  806
 966,  693,  220,  821,  806
 967,  808,  807, 1077,  297
 968,  306, 1070,  810, 1013
 969, 1073, 1074, 1814,  346
 970,  813,  831, 1141,  332
 971,  814,  311,  198,  681
 972,  815, 1075, 1271,  817
 973,  824,  699,  231,  828
 974,  821,  819,  334, 1164
 975,  820, 1072, 1291,  823
 976,  822,  333, 1155,  829
 977,  990,  823, 1291,  295
 978, 1187,  825, 1073, 1206
 979,  222,  822,  829,  694
 980,  828,  231,  700,  803
 981,  835,  245,  246,  834
 982, 1098,  843,  844,  319
 983,  843,   22,  586,  844
 984,  320, 1034,  845,  846
 985,  753,  752, 1034,  320
 986,  754,  755, 1016,  321
 987,  759,  756, 1093,  322
 988, 1254,  393,  854, 1053
 989,  589,   28,  851,  865
 990,  760,  758, 1162, 1788
 991,  855,   38,  595,  859
 992, 1053,  854,  394, 1161
 993,  400, 1010,  855,  859
 994,  859,  856, 1181,  400
 995,  398, 1009,  857, 1191
 996,  860,  864, 1063,  401
 997,  861,  984, 1106, 1156
 998, 1377,  397, 1520, 1289
 999, 1191,  863, 1038,  398
1000,  864,  858,  402, 1063
1001,  646,  136,  867, 1782
1002,  141,  142,  868,  869
1003, 1060,  870,  876,  551
1004,  551,  876,  872, 1071
1005,  143,  144,  872,  876
1006,  552,  871,  873, 1096
1007, 1058,  874,  140,  649
1008,  878,  875,  146,  652
1009,  877,  554, 1095,  878
1010,  554,  877,  879, 1061
1011, 1796,  880,  887,  555
1012,  556, 1193,  881,  883
1013,  885,  883,  150,  151
1014,  557,  882,  884, 1048
1015, 1055,  888,  891,  560
1016,  558,  890,  889, 1105
1017,  153,  656,  889,  890
1018, 1045,  892,  893,  561
1019,  560,  891,  892, 1045
1020,  561,  893,  894, 1019
1021,  896,  895,  158,  659
1022, 1276,  897,  159,  160
1023,  563, 1276,  898, 1457
1024,  160,  660,  898, 1276
1025, 1246,  289, 1385, 1018
1026, 1170, 1151,  572,  901
1027,  391,  903,  392, 1491
1028,  907,  120,  121,  908
1029, 1027,  908,  461, 1320
1030,  459,  737,  910, 1794
1031, 1122,  913,  930,  528
1032,  527,  917,  913, 1122
1033,  510, 1092,  914, 1278
1034,  916,  914, 1092,  509
1035, 1128,  915,  511, 1282
1036,  916,  509, 1094,  918
1037, 1099,  941,  917,  527
1038,  919,  918, 1094,  508
1039,  920,  919,  508, 1097
1040, 1100,  932,  922,  529
1041,  926,  621,   86,  929
1042,  529,  922,  923, 1150
1043,  925,  924, 1101, 1432
1044,  929,   86,   87,  928
1045,  525,  937,  927, 1189
1046,  530,  926,  929, 1103
1047,  933,   88,   89,  936
1048,  531,  928,  931, 1124
1049, 1147,  934, 1120, 1314
1050,  532,  933,  936, 1041
1051,  937,   79,   80,  927
1052, 1793,  938,  940,  533
1053,  943,  624,   91,  946
1054, 1179,  943,  946,  534
1055,  524,  957, 1785,  944
1056,   79,  937, 1785,  617
1057, 1160, 1037,  542,  939
1058,  947,   92,  625,  948
1059,  535, 1186,  947,  948
1060, 1252, 1025,  541,  945
1061,  951,  514, 1035, 1049
1062, 1049, 1107,  953,  951
1063, 1275,  955,  952, 1108
1064, 1275, 1109,  956,  955
1065,  957,   78,  617, 1785
1066,  536,  963,  958, 1129
1067,  472,  960,  959, 1790
1068,  961,  540, 1801, 1023
1069,  471,  964,  962, 1110
1070,  963,   94,  626,  958
1071,  470,  967,  966, 1111
1072,  469,  970,  968, 1112
1073,  969, 1679, 1789, 1012
1074,  538, 1119,  969, 1012
1075,  468,  972,  971, 1198
1076,  523, 1050,  973, 1118
1077,  467, 1352,  974, 1185
1078,  466, 1192, 1784,  975
1079, 1121,  466, 1279, 1397
1080,  537, 1117,  979, 1030
1081,  980,  599,   46, 1783
1082,  981, 1114, 1277,  982
1083,  983,  982, 1277, 1115
1084,  985,  983, 1115, 1362
1085, 1362, 1106,  984,  985
1086,  522, 1014,  987, 1116
1087,  987, 1014,  521, 1178
1088,  990,  295, 1102,  723
1089,  993, 1143, 1126,  546
1090,  998,    9,  579, 1011
1091, 1002, 1144, 1138,  462
1092,  571, 1136, 1313, 1003
1093,  570, 1137, 1134, 1004
1094, 1802, 1231, 1815, 1136
1095, 1006,  565, 1287, 1157
1096, 1007, 1234,  354, 1419
1097, 1798, 1573,  307, 1742
1098,  481, 1494, 1008, 1422
1099, 1239, 1009,  398, 1807
1100, 1289, 1009, 1149,  328
1101, 1347, 1010,  400, 1219
1102, 1011,  579,   10,  740
1103, 1012, 1424, 1241,  538
1104, 1013, 1421, 1240,  306
1105, 1014, 1427, 1236,  521
1106, 1015, 1381, 1808, 1529
1107, 1245, 1015, 1529,  480
1108, 1017, 1377, 1067,  327
1109, 1177, 1017,  327, 1051
1110, 1018,  288, 1247,  568
1111, 1344, 1329,  282, 1454
1112, 1288, 1020, 1386,  407
1113, 1144, 1288,  407, 1237
1114, 1021, 1177, 1051,  326
1115, 1022, 1245,  480, 1368
1116,  479, 1171, 1022, 1368
1117,  961, 1023, 1373,  539
1118, 1800, 1523, 1250, 1801
1119, 1026,   16,   17,  316
1120, 1169, 1320,  461, 1001
1121, 1028, 1251,  353, 1517
1122, 1234, 1028, 1517,  354
1123, 1333, 1029, 1168,  348
1124, 1154,  349, 1342, 1056
1125, 1031, 1171,  479, 1357
1126,  478, 1158, 1031, 1357
1127, 1032, 1302, 1170,  901
1128,  514,  731, 1293, 1035
1129, 1036, 1426, 1256,  305
1130, 1037,  502, 1364, 1252
1131, 1039, 1247, 1402,  287
1132, 1262, 1039,  287, 1398
1133, 1040, 1372, 1251,  309
1134,  494, 1360, 1834, 1319
1135, 1337, 1042, 1158,  478
1136,  477, 1146, 1042, 1337
1137, 1160, 1044, 1147,  503
1138, 1220, 1160,  503, 1455
1139, 1045, 1328, 1263,  560
1140, 1232, 1046,  391, 1317
1141, 1047, 1409,  408, 1249
1142, 1409, 1047, 1266,  409
1143,  474, 1107, 1049, 1382
1144, 1050, 1434, 1244,  522
1145, 1126, 1211,  266, 1024
1146, 1195,  905, 1052, 1822
1147,  735, 1054, 1792,  722
1148,  506, 1379, 1054, 1432
1149,  560, 1263, 1281, 1055
1150, 1055, 1281, 1321,  559
1151,  350, 1130, 1056, 1342
1152, 1349, 1059,  459, 1506
1153, 1060,  551, 1265, 1327
1154,  271, 1482, 1265, 1274
1155, 1413, 1306,  275, 1519
1156, 1200, 1159, 1799, 1829
1157, 1064,  550, 1227, 1348
1158, 1065,  329, 1239, 1807
1159, 1224, 1066,  330, 1331
1160,  332, 1208, 1376, 1068
1161, 1069,  305, 1374,  785
1162, 1322, 1274, 1071,  552
1163, 1072,  296, 1223, 1291
1164, 1074,  816,  812, 1076
1165, 1827, 1271, 1075, 1286
1166,  345, 1375, 1076, 1078
1167, 1078, 1079, 1380,  345
1168,  344, 1380, 1079, 1081
1169,  343, 1202, 1083, 1084
1170,  342, 1204, 1086, 1087
1171,  341, 1203, 1088, 1272
1172, 1089,  340, 1414, 1214
1173,  406, 1237, 1315, 1813
1174, 1209,  527, 1122, 1351
1175, 1308, 1255,  529, 1150
1176, 1199, 1156, 1106,  403
1177,  473, 1487, 1676, 1839
1178, 1196, 1113,  980, 1783
1179,  405, 1114, 1113, 1804
1180,  405, 1259, 1812, 1301
1181, 1277, 1114,  405, 1301
1182,  404, 1215, 1362, 1115
1183, 1165,  544,  729, 1188
1184, 1266, 1121, 1397,  409
1185, 1336, 1226,  528, 1100
1186,  476, 1163, 1123, 1303
1187, 1153, 1125, 1201,  456
1188, 1143,  267, 1211, 1126
1189, 1127, 1262, 1398, 1828
1190, 1828, 1398, 1693, 1845
1191, 1370, 1353,  510, 1128
1192, 1129, 1438, 1284,  536
1193, 1216, 1142, 1130,  350
1194, 1378, 1131, 1285,  268
1195,  324, 1430, 1254, 1053
1196, 1348, 1363,  549, 1064
1197, 1285, 1133, 1393,  268
1198,  315, 1187, 1206, 1135
1199,  994, 1235, 1152,  314
1200, 1313,  291, 1243, 1137
1201,  290, 1134, 1137, 1243
1202, 1138,  406, 1205, 1196
1203, 1304, 1139, 1233,  390
1204, 1169, 1139, 1304,  389
1205,  289, 1246, 1140, 1273
1206,  351, 1062, 1142, 1216
1207,  267, 1491, 1822, 1211
1208, 1145, 1280,  286, 1396
1209, 1287, 1145, 1396,  285
1210, 1148,  524, 1290, 1440
1211, 1148, 1440, 1267,  523
1212, 1151,  292, 1231, 1802
1213, 1282, 1153,  456, 1391
1214,  349, 1154, 1029, 1333
1215,  352, 1040, 1159, 1200
1216,  502, 1037, 1160, 1220
1217,  726, 1183, 1125,  512
1218,  731,  515, 1163, 1293
1219, 1215, 1228, 1387,  403
1220, 1169,  389, 1842, 1320
1221,  292, 1151, 1170, 1816
1222, 1290, 1175, 1525,  485
1223,  944, 1175, 1290,  524
1224, 1205, 1297, 1406, 1804
1225, 1294, 1181,  401, 1208
1226,  734,  458, 1332, 1183
1227,  535, 1312, 1528, 1186
1228, 1810, 1809, 1253, 1513
1229, 1190,  536, 1284, 1449
1230, 1190, 1449, 1312,  535
1231, 1193, 1307, 1306,  555
1232, 1329, 1826, 1394,  282
1233, 1264,  294, 1428, 1541
1234, 1371, 1197,  293, 1032
1235, 1198, 1323, 1300,  468
1236, 1199, 1485,  402, 1156
1237, 1332, 1501,  457, 1183
1238, 1202,  343, 1404, 1511
1239, 1511, 1497,  344, 1202
1240, 1512,  410, 1821, 1576
1241, 1204,  342, 1425, 1674
1242, 1404,  343, 1564,  412
1243, 1470, 1837,  346, 1814
1244, 1207, 1413, 1519,  274
1245, 1359, 1207,  274, 1516
1246, 1294, 1208,  332, 1141
1247, 1063,  402, 1485, 1376
1248, 1388, 1361, 1209,  488
1249,  487, 1318, 1361, 1388
1250, 1384, 1365, 1210,  277
1251,  276, 1307, 1365, 1384
1252, 1052,  266, 1211, 1822
1253, 1378, 1491,  267, 1825
1254, 1212, 1360, 1510,  493
1255, 1346, 1212,  493, 1509
1256,  334, 1155, 1213, 1387
1257, 1155,  333, 1811, 1213
1258, 1512,  341, 1521,  410
1259, 1362, 1215,  403, 1106
1260, 1334,  454, 1514, 1258
1261,  509, 1092, 1217, 1334
1262, 1218, 1359, 1516,  273
1263, 1343, 1218,  273, 1505
1264, 1219, 1141,  331, 1347
1265, 1221, 1355, 1508,  362
1266, 1341, 1221,  362, 1515
1267, 1390, 1354, 1222,  278
1268, 1356, 1225, 1383,  413
1269, 1323, 1356,  413, 1410
1270, 1389, 1351, 1226,  489
1271,  550, 1060, 1327, 1227
1272,  335, 1164, 1228, 1399
1273,  492, 1330, 1229, 1876
1274,  281, 1464, 1328, 1230
1275, 1230,  561, 1019, 1344
1276, 1232,  268, 1393, 1530
1277, 1530, 1503,  390, 1232
1278, 1832, 1152, 1235, 1418
1279, 1238, 1343, 1505,  272
1280, 1322, 1238,  272, 1489
1281, 1340, 1242,  279, 1411
1282, 1248, 1341, 1515,  363
1283, 1316, 1248,  363, 1518
1284, 1020, 1249,  408, 1386
1285,  501, 1025, 1252, 1364
1286, 1843, 1513, 1861, 1862
1287, 1395, 1336, 1255,  490
1288, 1309, 1806,  453, 1522
1289, 1301, 1812, 1399,  404
1290, 1406, 1259,  405, 1804
1291, 1507, 1261, 1330,  492
1292,  491, 1292, 1261, 1507
1293, 1527, 1264, 1541, 1817
1294, 1483,  293, 1527,  368
1295, 1327, 1265, 1482,  270
1296,  414, 1565, 1549, 1467
1297, 1420, 1324, 1269,  388
1298,  296, 1072, 1271, 1827
1299,  404, 1115, 1277, 1301
1300, 1279,  410, 1521, 1397
1301, 1321, 1281, 1471, 1879
1302, 1283, 1437,  408, 1409
1303, 1414, 1283, 1409,  409
1304, 1284,  497, 1830, 1449
1305, 1872, 1286, 1436,  365
1306, 1831,  285, 1847, 1559
1307, 1377, 1289,  328, 1067
1308, 1292,  491, 1400, 1308
1309,  364, 1524, 1295, 1298
1310, 1436, 1295, 1524,  365
1311, 1296,  303, 1166, 1441
1312, 1180, 1297, 1813,  337
1313, 1298, 1316, 1518,  364
1314,  407, 1386, 1299, 1443
1315, 1437, 1299, 1386,  408
1316, 1459, 1300,  412, 1564
1317, 1442, 1302, 1483, 1653
1318, 1816, 1170, 1302, 1442
1319,  269, 1473, 1503, 1530
1320, 1305,  302, 1176, 1526
1321, 1172, 1408, 1325,  301
1322,  490, 1255, 1308, 1400
1323, 1525, 1175, 1640,  486
1324, 1640,  525, 1189, 1405
1325, 1446, 1309, 1522,  452
1326, 1543, 1310, 1446,  452
1327, 1606, 1543, 1854,  451
1328, 1645, 1435, 1311, 1450
1329,  291, 1313, 1136, 1815
1330, 1090,  337, 1813, 1315
1331, 1361, 1318,  526, 1099
1332, 1360,  494, 1853, 1510
1333,  533, 1179, 1319, 1834
1334, 1242, 1321, 1879,  279
1335, 1839, 1676, 1552, 1326
1336, 1326, 1552,  416, 1450
1337, 1807, 1331,  330, 1065
1338, 1466,  457, 1501, 1860
1339,  454, 1334, 1217, 1819
1340, 1335,  283, 1394, 1826
1341,  489, 1226, 1336, 1395
1342, 1452, 1337, 1479, 1537
1343,  278, 1222, 1340, 1411
1344, 1345,  304, 1374, 1502
1345,  269, 1363, 1348, 1473
1346, 1349, 1550, 1493,  458
1347, 1392, 1027, 1320, 1842
1348, 1269, 1350, 1873,  388
1349,  488, 1209, 1351, 1389
1350,  455, 1462, 1353, 1370
1351,  277, 1210, 1354, 1390
1352,  414, 1383, 1225, 1417
1353, 1358,  975,  467, 1805
1354, 1360, 1793,  533, 1834
1355, 1363,  269, 1530, 1393
1356, 1366,  582,   16, 1026
1357, 1580, 1453,  480, 1529
1358, 1465, 1597, 1369,  474
1359, 1451, 1372, 1484, 1537
1360, 1375,  345, 1467, 1549
1361, 1549, 1470, 1814, 1375
1362,  333, 1068, 1376, 1811
1363,  520, 1661, 1494, 1381
1364, 1495,  475, 1260, 1488
1365, 1467, 1583, 1383,  414
1366, 1638,  382, 1593, 1871
1367, 1555, 1385,  289, 1686
1368,  288, 1018, 1385, 1696
1369, 1632, 1594,  278, 1411
1370, 1568, 1561, 1392, 1842
1371, 1873, 1350, 1392, 1561
1372, 1845, 1693, 1865,  374
1373, 1649, 1579,  287, 1402
1374, 1828,  286, 1280, 1127
1375, 1689, 1886, 1847, 1846
1376, 1367, 1401,  284, 1536
1377, 1588,  288, 1696,  372
1378, 1564,  343, 1204, 1674
1379, 1566,  487, 1644,  431
1380, 1640, 1405, 1652,  486
1381, 1408, 1651, 1567, 1325
1382,  413, 1497, 1511, 1410
1383, 1628, 1595,  279, 1879
1384, 1645, 1605, 1412, 1838
1385, 1306, 1413, 1796,  555
1386, 1630,  409, 1397, 1521
1387, 1546, 1415,  296, 1827
1388,  366, 1570, 1415, 1546
1389, 1538, 1500, 1855, 1416
1390, 1552, 1669, 1499,  416
1391, 1584, 1532,  354, 1517
1392, 1836, 1835, 1741, 1856
1393, 1561, 1604,  388, 1873
1394, 1324, 1420,  387, 1506
1395, 1856, 1741, 1739, 1884
1396, 1381, 1494,  481, 1808
1397,  370, 1423, 1496, 1500
1398, 1658, 1433, 1423,  370
1399, 1582,  499, 1737, 1748
1400, 1425,  342, 1203, 1576
1401, 1554,  483, 1688, 1766
1402, 1541, 1428, 1610, 1722
1403, 1548,  500, 1558,  445
1404, 1540, 1488, 1889,  420
1405, 1490, 1433, 1547, 1859
1406, 1620,  484, 1697, 1755
1407, 1268, 1435,  415, 1565
1408,  276, 1641,  383, 1596
1409,  359, 1296, 1441, 1657
1410, 1442, 1653,  369, 1416
1411, 1486, 1719, 1893, 1444
1412, 1475, 1444,  418, 1551
1413,  495, 1407, 1445, 1528
1414, 1447, 1477, 1654, 1844
1415, 1833, 1447, 1844,  448
1416,  420, 1478, 1531, 1851
1417,  420, 1889, 1448, 1478
1418, 1616, 1830,  497, 1721
1419, 1645, 1450,  416, 1605
1420, 1451,  422, 1578,  353
1421, 1478, 1452,  421, 1531
1422, 1481, 1453, 1535,  423
1423,  424, 1535, 1453, 1580
1424, 1539, 1455, 1833,  448
1425,  419, 1894, 1551, 1495
1426,  419, 1461, 1456, 1894
1427,  563, 1457, 1335, 1797
1428, 1367, 1536, 1660,  564
1429,  446, 1581, 1460, 1545
1430, 1820, 1425, 1576, 1821
1431, 1461,  419, 1540, 1469
1432, 1572, 1819, 1648, 1663
1433, 1472, 1851, 1531,  421
1434, 1851, 1472, 1463, 1469
1435,  418, 1597, 1465, 1878
1436, 1466, 1860, 1533, 1468
1437, 1467,  345, 1380, 1583
1438,  384, 1586, 1468, 1533
1439,  456, 1201, 1468, 1586
1440,  420, 1851, 1469, 1540
1441, 1472,  421, 1484,  352
1442, 1476, 1474,  502, 1220
1443, 1474, 1476,  447, 1460
1444,  504, 1810, 1513, 1843
1445, 1843, 1654, 1477,  504
1446, 1537, 1479,  422, 1451
1447, 1481, 1480,  479, 1368
1448,  423, 1659, 1480, 1481
1449, 1717, 1483,  368, 1818
1450, 1537, 1484,  421, 1452
1451, 1487, 1719,  417, 1676
1452,  419, 1495, 1488, 1540
1453, 1489, 1625, 1604,  271
1454, 1273, 1490, 1686,  289
1455, 1501, 1332, 1544, 1866
1456,  475, 1495, 1878, 1382
1457, 1496,  291, 1815, 1500
1458, 1606,  506, 1310, 1543
1459,  451, 1720, 1498, 1606
1460, 1499,  347, 1605,  416
1461,  385, 1860, 1501, 1866
1462,  357, 1607, 1749, 1684
1463, 1345, 1502, 1734,  358
1464, 1592, 1508, 1639, 1667
1465, 1601, 1509, 1633, 1868
1466, 1509, 1876, 1229, 1346
1467, 1521,  341, 1214, 1630
1468, 1770, 1492, 1542,  449
1469, 1514,  453, 1806, 1258
1470,  411, 1820, 1805,  467
1471, 1637, 1602, 1516,  274
1472,  430, 1727,  486, 1652
1473, 1687, 1556,  359, 1892
1474, 1885, 1305, 1526, 1556
1475, 1553,  496, 1685, 1774
1476,  423, 1535, 1532, 1584
1477, 1532, 1535, 1710, 1850
1478, 1533, 1621, 1613,  384
1479, 1692, 1775, 1749, 1607
1480,  426, 1749, 1775, 1534
1481, 1710, 1535,  424, 1739
1482, 1681, 1536,  284, 1765
1483,  370, 1500, 1538, 1716
1484, 1476, 1539, 1712,  447
1485, 1680, 1817, 1541, 1722
1486,  449, 1861, 1513, 1253
1487,  380, 1672, 1673, 1591
1488,  441, 1887, 1708, 1761
1489, 1565,  414, 1417, 1268
1490, 1493, 1550, 1629,  386
1491, 1734, 1743,  427, 1723
1492, 1669, 1552, 1676,  417
1493, 1701, 1553, 1774, 1703
1494,  427, 1743, 1766, 1688
1495, 1750, 1555, 1686,  371
1496, 1752, 1858, 1556, 1687
1497, 1690, 1557, 1727,  429
1498, 1694, 1558, 1581,  446
1499, 1711, 1768, 1875, 1886
1500, 1744, 1730, 1875, 1768
1501, 1675, 1560, 1586,  384
1502,  383, 1648,  455, 1560
1503, 1562, 1655, 1733,  377
1504, 1646, 1562,  377, 1725
1505, 1857, 1691,  425, 1563
1506, 1563,  425, 1692,  356
1507, 1667, 1566,  431, 1592
1508, 1651, 1727,  430, 1567
1509,  430, 1639,  361, 1567
1510, 1874, 1568, 1842,  389
1511,  270, 1482, 1568, 1874
1512, 1852, 1726, 1840,  438
1513, 1852, 1642, 1569, 1650
1514, 1611,  367, 1504,  295
1515,  374, 1751, 1571, 1845
1516, 1622, 1572,  382, 1666
1517, 1574,  355, 1421, 1013
1518, 1575, 1646, 1725,  378
1519, 1635, 1575,  378, 1724
1520, 1659, 1578,  422, 1458
1521,  373, 1735, 1579, 1649
1522, 1735, 1865, 1693, 1579
1523, 1582, 1748, 1695,  498
1524, 1644, 1880, 1665,  431
1525, 1665, 1880,  432, 1618
1526, 1587, 1635, 1724,  379
1527, 1598, 1587,  379, 1672
1528, 1662, 1588,  372, 1763
1529,  437, 1868, 1589, 1732
1530, 1668, 1590, 1636,  433
1531,  434, 1671, 1590, 1668
1532, 1591, 1631, 1670,  380
1533, 1592,  431, 1665, 1626
1534, 1593, 1663, 1641, 1871
1535, 1663, 1593,  382, 1572
1536, 1594, 1666,  382, 1638
1537,  381, 1666, 1594, 1632
1538, 1632, 1595, 1670,  381
1539,  380, 1670, 1595, 1628
1540, 1675, 1596,  383, 1560
1541, 1719, 1487, 1597, 1893
1542, 1628, 1598, 1672,  380
1543, 1664, 1634, 1599,  433
1544, 1720,  451, 1762, 1772
1545, 1492, 1600,  450, 1542
1546, 1868, 1731,  436, 1601
1547, 1601,  436, 1623,  492
1548,  273,  386, 1629, 1505
1549, 1625, 1603,  387, 1420
1550, 1668, 1624, 1608,  434
1551, 1617, 1609, 1729,  435
1552, 1757, 1705,  367, 1683
1553, 1612, 1622, 1666,  381
1554, 1631, 1612,  381, 1670
1555, 1614, 1626, 1665, 1618
1556, 1728, 1615, 1617,  435
1557,  434, 1608, 1615, 1728
1558,  496, 1830, 1616, 1685
1559, 1618,  432, 1664, 1619
1560,  433, 1636, 1619, 1664
1561, 1518, 1619, 1636,  364
1562, 1620, 1755, 1688,  483
1563, 1637,  274,  385, 1866
1564,  274, 1519, 1621,  385
1565, 1729, 1623,  436, 1757
1566,  433, 1599, 1624, 1668
1567,  384, 1613, 1627, 1675
1568,  275, 1439, 1627, 1613
1569, 1868,  437, 1722, 1731
1570,  432, 1585, 1634, 1664
1571, 1695, 1756, 1698,  498
1572, 1667, 1639,  430, 1652
1573,  494, 1569, 1642, 1853
1574,  438, 1732, 1642, 1852
1575, 1699, 1643, 1808,  481
1576,  425, 1691, 1643, 1699
1577, 1435, 1645, 1838,  415
1578, 1747, 1721,  497, 1647
1579, 1663, 1648,  383, 1641
1580, 1650,  495, 1701,  439
1581, 1650,  439, 1726, 1852
1582, 1727, 1651, 1700,  429
1583, 1863, 1704, 1844, 1654
1584, 1655,  283, 1707,  376
1585, 1733, 1655,  376, 1704
1586, 1656, 1752, 1697,  484
1587, 1892, 1769,  428, 1687
1588, 1457,  898, 1660, 1803
1589, 1763,  443, 1748, 1841
1590,  373, 1649, 1662, 1773
1591, 1882, 1669,  417, 1486
1592, 1669, 1882, 1418, 1499
1593, 1671,  434, 1728, 1753
1594, 1543,  452, 1673, 1854
1595,  411, 1674, 1425, 1820
1596, 1678,  482, 1554, 1766
1597, 1789, 1679,  539, 1577
1598, 1840, 1726, 1717, 1818
1599, 1765,  284, 1745, 1746
1600, 1713, 1682,  377, 1733
1601, 1683,  435, 1729, 1757
1602, 1774,  440, 1718, 1703
1603, 1686, 1490, 1859,  371
1604, 1752, 1687,  428, 1697
1605, 1690,  429, 1858, 1752
1606, 1775, 1692,  425, 1699
1607,  445, 1558, 1694, 1764
1608,  443, 1756, 1695, 1748
1609, 1738, 1699,  481, 1422
1610, 1702, 1717, 1726,  439
1611, 1733, 1704, 1863, 1713
1612,  436, 1731, 1705, 1757
1613, 1610, 1705, 1731, 1722
1614, 1867, 1706, 1887,  441
1615, 1761, 1708, 1716,  440
1616, 1709,  376, 1707, 1746
1617, 1710, 1739, 1741, 1850
1618, 1712,  375, 1714,  447
1619, 1744, 1768, 1714,  375
1620, 1715,  442, 1758,  371
1621,  440, 1716, 1538, 1718
1622, 1772, 1762, 1891, 1883
1623, 1772, 1883,  450, 1720
1624, 1732, 1680, 1722,  437
1625, 1755, 1769,  427, 1688
1626, 1725,  377, 1682, 1776
1627, 1753, 1728,  435, 1683
1628, 1745, 1730, 1744,  375
1629,  284, 1401, 1730, 1745
1630, 1680, 1732,  438, 1840
1631,  373, 1773, 1759, 1735
1632, 1737, 1736, 1740,  444
1633,  499, 1373, 1736, 1737
1634, 1748, 1737,  444, 1841
1635, 1738, 1534, 1775, 1699
1636, 1739,  424, 1691, 1884
1637, 1884, 1691, 1857, 1856
1638, 1740, 1760, 1759,  444
1639, 1850, 1741, 1835, 1419
1640, 1678, 1766, 1743,  426
1641, 1701, 1703, 1848,  439
1642,  375, 1712, 1746, 1745
1643, 1747, 1870, 1867, 1721
1644,  442, 1715, 1870, 1747
1645, 1684, 1749,  426, 1743
1646, 1750,  371, 1758, 1771
1647, 1751, 1764, 1754, 1689
1648, 1711, 1694,  446, 1768
1649, 1689, 1754, 1711, 1886
1650,  442, 1698, 1756, 1758
1651,  445, 1764, 1881, 1760
1652,  374, 1865, 1760, 1881
1653, 1685, 1761,  440, 1774
1654, 1767, 1762,  451, 1854
1655, 1890, 1891, 1762, 1767
1656, 1763,  372, 1771,  443
1657, 1769, 1892, 1723,  427
1658, 1770, 1253, 1809,  505
1659,  378, 1725, 1776, 1883
1660,  130,  131, 1777, 1778
1661, 1777,  719, 1786,  721
1662, 1778, 1787,  129,  130
1663, 1786,  133,  134,  725
1664,  135,  646, 1782, 1779
1665, 1781,  718,    1,    2
1666, 1784,   53,  603, 1352
1667,  743, 1366, 1026,  744
1668, 1326, 1790, 1109, 1839
1669, 1825, 1791, 1131, 1378
1670,  267, 1143, 1791, 1825
1671, 1795, 1173, 1812, 1259
1672, 1798, 1007, 1419, 1835
1673, 1799,  310,  830, 1062
1674,  540,  950, 1800, 1801
1675, 1807,  398, 1038, 1331
1676, 1188,  732, 1809, 1810
1677, 1815, 1231, 1855, 1500
1678,  368, 1527, 1817, 1818
1679, 1823, 1824, 1213, 1811
1680, 1824, 1823, 1199,  403
1681, 1826, 1194, 1797, 1335
1682, 1831, 1157, 1287,  285
1683, 1573, 1798, 1835, 1836
1684,  415, 1838, 1837, 1849
1685, 1412,  346, 1837, 1838
1686, 1410, 1511, 1404,  412
1687, 1845, 1571,  286, 1828
1688,  285, 1396, 1846, 1847
1689,  355, 1836, 1856, 1857
1690, 1858,  429, 1700,  360
1691, 1654, 1843, 1862, 1863
1692,  376, 1709, 1864, 1704
1693, 1869, 1458,  422, 1479
1694, 1870, 1715, 1706, 1867
1695, 1647, 1257, 1431, 1698
1696, 1874, 1403, 1877,  270
1697, 1886, 1875, 1559, 1847
1698, 1880, 1644, 1585,  432
1699, 1724,  378, 1883, 1891
1700, 1888,  366, 1546, 1872
1701, 1891, 1890,  379, 1724
1702, 1892,  359, 1657, 1723
1703, 1597,  418, 1444, 1893
1704, 1894, 1456, 1475, 1551
*Nset, nset=_G2, internal, generate
    1,  1894,     1
*Elset, elset=_G2, internal, generate
    1,  1704,     1
** Section: Section-Airfoil
*Solid Section, elset=_G2, material=Material-Airfoil
,
*End Instance
**  
*Nset, nset=TopOptSet, instance=Airfoil-1, generate
    1,  1894,     1
*Elset, elset=TopOptSet, instance=Airfoil-1, generate
    1,  1704,     1
*Nset, nset=_PickedSet7, internal, instance=Airfoil-1
 264,
*Nset, nset=_PickedSet8, internal, instance=Airfoil-1
 264,
*Nset, nset=_PickedSet9, internal, instance=Airfoil-1
 264,
*Nset, nset=_PickedSet10, internal, instance=Airfoil-1
 575,
*Nset, nset=_PickedSet11, internal, instance=Airfoil-1
 5,
*Nset, nset=_PickedSet12, internal, instance=Airfoil-1
 577,
*Nset, nset=_PickedSet13, internal, instance=Airfoil-1
 8,
*Nset, nset=_PickedSet14, internal, instance=Airfoil-1
 9,
*Nset, nset=_PickedSet15, internal, instance=Airfoil-1
 11,
*Nset, nset=_PickedSet16, internal, instance=Airfoil-1
 12,
*Nset, nset=_PickedSet17, internal, instance=Airfoil-1
 581,
*Nset, nset=_PickedSet18, internal, instance=Airfoil-1
 15,
*Nset, nset=_PickedSet19, internal, instance=Airfoil-1
 16,
*Nset, nset=_PickedSet20, internal, instance=Airfoil-1
 18,
*Nset, nset=_PickedSet21, internal, instance=Airfoil-1
 19,
*Nset, nset=_PickedSet22, internal, instance=Airfoil-1
 585,
*Nset, nset=_PickedSet23, internal, instance=Airfoil-1
 22,
*Nset, nset=_PickedSet24, internal, instance=Airfoil-1
 23,
*Nset, nset=_PickedSet25, internal, instance=Airfoil-1
 25,
*Nset, nset=_PickedSet26, internal, instance=Airfoil-1
 588,
*Nset, nset=_PickedSet27, internal, instance=Airfoil-1
 589,
*Nset, nset=_PickedSet28, internal, instance=Airfoil-1
 29,
*Nset, nset=_PickedSet29, internal, instance=Airfoil-1
 31,
*Nset, nset=_PickedSet30, internal, instance=Airfoil-1
 32,
*Nset, nset=_PickedSet31, internal, instance=Airfoil-1
 592,
*Nset, nset=_PickedSet32, internal, instance=Airfoil-1
 35,
*Nset, nset=_PickedSet33, internal, instance=Airfoil-1
 594,
*Nset, nset=_PickedSet34, internal, instance=Airfoil-1
 38,
*Nset, nset=_PickedSet35, internal, instance=Airfoil-1
 39,
*Nset, nset=_PickedSet36, internal, instance=Airfoil-1
 596,
*Nset, nset=_PickedSet37, internal, instance=Airfoil-1
 597,
*Nset, nset=_PickedSet38, internal, instance=Airfoil-1
 598,
*Nset, nset=_PickedSet39, internal, instance=Airfoil-1
 45,
*Nset, nset=_PickedSet40, internal, instance=Airfoil-1
 46,
*Nset, nset=_PickedSet41, internal, instance=Airfoil-1
 48,
*Nset, nset=_PickedSet42, internal, instance=Airfoil-1
 601,
*Nset, nset=_PickedSet43, internal, instance=Airfoil-1
 51,
*Nset, nset=_PickedSet44, internal, instance=Airfoil-1
 52,
*Nset, nset=_PickedSet45, internal, instance=Airfoil-1
 54,
*Nset, nset=_PickedSet46, internal, instance=Airfoil-1
 55,
*Nset, nset=_PickedSet47, internal, instance=Airfoil-1
 605,
*Nset, nset=_PickedSet48, internal, instance=Airfoil-1
 58,
*Nset, nset=_PickedSet49, internal, instance=Airfoil-1
 60,
*Nset, nset=_PickedSet50, internal, instance=Airfoil-1
 61,
*Nset, nset=_PickedSet51, internal, instance=Airfoil-1
 608,
*Nset, nset=_PickedSet52, internal, instance=Airfoil-1
 609,
*Nset, nset=_PickedSet53, internal, instance=Airfoil-1
 65,
*Nset, nset=_PickedSet54, internal, instance=Airfoil-1
 67,
*Nset, nset=_PickedSet55, internal, instance=Airfoil-1
 68,
*Nset, nset=_PickedSet56, internal, instance=Airfoil-1
 612,
*Nset, nset=_PickedSet57, internal, instance=Airfoil-1
 71,
*Nset, nset=_PickedSet58, internal, instance=Airfoil-1
 614,
*Nset, nset=_PickedSet59, internal, instance=Airfoil-1
 74,
*Nset, nset=_PickedSet60, internal, instance=Airfoil-1
 75,
*Nset, nset=_PickedSet61, internal, instance=Airfoil-1
 616,
*Nset, nset=_PickedSet62, internal, instance=Airfoil-1
 617,
*Nset, nset=_PickedSet63, internal, instance=Airfoil-1
 80,
*Nset, nset=_PickedSet64, internal, instance=Airfoil-1
 81,
*Nset, nset=_PickedSet65, internal, instance=Airfoil-1
 82,
*Nset, nset=_PickedSet66, internal, instance=Airfoil-1
 620,
*Nset, nset=_PickedSet67, internal, instance=Airfoil-1
 621,
*Nset, nset=_PickedSet68, internal, instance=Airfoil-1
 87,
*Nset, nset=_PickedSet69, internal, instance=Airfoil-1
 88,
*Nset, nset=_PickedSet70, internal, instance=Airfoil-1
 623,
*Nset, nset=_PickedSet71, internal, instance=Airfoil-1
 624,
*Nset, nset=_PickedSet72, internal, instance=Airfoil-1
 625,
*Nset, nset=_PickedSet73, internal, instance=Airfoil-1
 94,
*Nset, nset=_PickedSet74, internal, instance=Airfoil-1
 95,
*Nset, nset=_PickedSet75, internal, instance=Airfoil-1
 627,
*Nset, nset=_PickedSet76, internal, instance=Airfoil-1
 98,
*Nset, nset=_PickedSet77, internal, instance=Airfoil-1
 629,
*Nset, nset=_PickedSet78, internal, instance=Airfoil-1
 101,
*Nset, nset=_PickedSet79, internal, instance=Airfoil-1
 102,
*Nset, nset=_PickedSet80, internal, instance=Airfoil-1
 631,
*Nset, nset=_PickedSet81, internal, instance=Airfoil-1
 632,
*Nset, nset=_PickedSet82, internal, instance=Airfoil-1
 107,
*Nset, nset=_PickedSet83, internal, instance=Airfoil-1
 108,
*Nset, nset=_PickedSet84, internal, instance=Airfoil-1
 109,
*Nset, nset=_PickedSet85, internal, instance=Airfoil-1
 635,
*Nset, nset=_PickedSet86, internal, instance=Airfoil-1
 112,
*Nset, nset=_PickedSet87, internal, instance=Airfoil-1
 114,
*Nset, nset=_PickedSet88, internal, instance=Airfoil-1
 115,
*Nset, nset=_PickedSet89, internal, instance=Airfoil-1
 638,
*Nset, nset=_PickedSet90, internal, instance=Airfoil-1
 118,
*Nset, nset=_PickedSet91, internal, instance=Airfoil-1
 119,
*Nset, nset=_PickedSet92, internal, instance=Airfoil-1
 120,
*Nset, nset=_PickedSet93, internal, instance=Airfoil-1
 641,
*Nset, nset=_PickedSet94, internal, instance=Airfoil-1
 123,
*Nset, nset=_PickedSet95, internal, instance=Airfoil-1
 124,
*Nset, nset=_PickedSet96, internal, instance=Airfoil-1
 643,
*Nset, nset=_PickedSet97, internal, instance=Airfoil-1
 127,
*Nset, nset=_PickedSet98, internal, instance=Airfoil-1
 128,
*Nset, nset=_PickedSet99, internal, instance=Airfoil-1
 645,
*Nset, nset=_PickedSet100, internal, instance=Airfoil-1
 129,
*Nset, nset=_PickedSet101, internal, instance=Airfoil-1
 130,
*Nset, nset=_PickedSet102, internal, instance=Airfoil-1
 132,
*Nset, nset=_PickedSet103, internal, instance=Airfoil-1
 132,
*Nset, nset=_PickedSet104, internal, instance=Airfoil-1
 133,
*Nset, nset=_PickedSet105, internal, instance=Airfoil-1
 134,
*Nset, nset=_PickedSet106, internal, instance=Airfoil-1
 135,
*Nset, nset=_PickedSet107, internal, instance=Airfoil-1
 646,
*Nset, nset=_PickedSet108, internal, instance=Airfoil-1
 137,
*Nset, nset=_PickedSet109, internal, instance=Airfoil-1
 647,
*Nset, nset=_PickedSet110, internal, instance=Airfoil-1
 139,
*Nset, nset=_PickedSet111, internal, instance=Airfoil-1
 649,
*Nset, nset=_PickedSet112, internal, instance=Airfoil-1
 142,
*Nset, nset=_PickedSet113, internal, instance=Airfoil-1
 143,
*Nset, nset=_PickedSet114, internal, instance=Airfoil-1
 651,
*Nset, nset=_PickedSet115, internal, instance=Airfoil-1
 146,
*Nset, nset=_PickedSet116, internal, instance=Airfoil-1
 147,
*Nset, nset=_PickedSet117, internal, instance=Airfoil-1
 653,
*Nset, nset=_PickedSet118, internal, instance=Airfoil-1
 150,
*Nset, nset=_PickedSet119, internal, instance=Airfoil-1
 655,
*Nset, nset=_PickedSet120, internal, instance=Airfoil-1
 153,
*Nset, nset=_PickedSet121, internal, instance=Airfoil-1
 154,
*Nset, nset=_PickedSet122, internal, instance=Airfoil-1
 657,
*Nset, nset=_PickedSet123, internal, instance=Airfoil-1
 658,
*Nset, nset=_PickedSet124, internal, instance=Airfoil-1
 659,
*Nset, nset=_PickedSet125, internal, instance=Airfoil-1
 160,
*Nset, nset=_PickedSet126, internal, instance=Airfoil-1
 161,
*Nset, nset=_PickedSet127, internal, instance=Airfoil-1
 661,
*Nset, nset=_PickedSet128, internal, instance=Airfoil-1
 662,
*Nset, nset=_PickedSet129, internal, instance=Airfoil-1
 166,
*Nset, nset=_PickedSet130, internal, instance=Airfoil-1
 167,
*Nset, nset=_PickedSet131, internal, instance=Airfoil-1
 168,
*Nset, nset=_PickedSet132, internal, instance=Airfoil-1
 665,
*Nset, nset=_PickedSet133, internal, instance=Airfoil-1
 666,
*Nset, nset=_PickedSet134, internal, instance=Airfoil-1
 173,
*Nset, nset=_PickedSet135, internal, instance=Airfoil-1
 174,
*Nset, nset=_PickedSet136, internal, instance=Airfoil-1
 668,
*Nset, nset=_PickedSet137, internal, instance=Airfoil-1
 177,
*Nset, nset=_PickedSet138, internal, instance=Airfoil-1
 670,
*Nset, nset=_PickedSet139, internal, instance=Airfoil-1
 180,
*Nset, nset=_PickedSet140, internal, instance=Airfoil-1
 181,
*Nset, nset=_PickedSet141, internal, instance=Airfoil-1
 183,
*Nset, nset=_PickedSet142, internal, instance=Airfoil-1
 184,
*Nset, nset=_PickedSet143, internal, instance=Airfoil-1
 674,
*Nset, nset=_PickedSet144, internal, instance=Airfoil-1
 187,
*Nset, nset=_PickedSet145, internal, instance=Airfoil-1
 188,
*Nset, nset=_PickedSet146, internal, instance=Airfoil-1
 190,
*Nset, nset=_PickedSet147, internal, instance=Airfoil-1
 677,
*Nset, nset=_PickedSet148, internal, instance=Airfoil-1
 678,
*Nset, nset=_PickedSet149, internal, instance=Airfoil-1
 194,
*Nset, nset=_PickedSet150, internal, instance=Airfoil-1
 196,
*Nset, nset=_PickedSet151, internal, instance=Airfoil-1
 197,
*Nset, nset=_PickedSet152, internal, instance=Airfoil-1
 681,
*Nset, nset=_PickedSet153, internal, instance=Airfoil-1
 682,
*Nset, nset=_PickedSet154, internal, instance=Airfoil-1
 683,
*Nset, nset=_PickedSet155, internal, instance=Airfoil-1
 203,
*Nset, nset=_PickedSet156, internal, instance=Airfoil-1
 204,
*Nset, nset=_PickedSet157, internal, instance=Airfoil-1
 685,
*Nset, nset=_PickedSet158, internal, instance=Airfoil-1
 686,
*Nset, nset=_PickedSet159, internal, instance=Airfoil-1
 687,
*Nset, nset=_PickedSet160, internal, instance=Airfoil-1
 210,
*Nset, nset=_PickedSet161, internal, instance=Airfoil-1
 211,
*Nset, nset=_PickedSet162, internal, instance=Airfoil-1
 689,
*Nset, nset=_PickedSet163, internal, instance=Airfoil-1
 690,
*Nset, nset=_PickedSet164, internal, instance=Airfoil-1
 691,
*Nset, nset=_PickedSet165, internal, instance=Airfoil-1
 217,
*Nset, nset=_PickedSet166, internal, instance=Airfoil-1
 218,
*Nset, nset=_PickedSet167, internal, instance=Airfoil-1
 220,
*Nset, nset=_PickedSet168, internal, instance=Airfoil-1
 694,
*Nset, nset=_PickedSet169, internal, instance=Airfoil-1
 223,
*Nset, nset=_PickedSet170, internal, instance=Airfoil-1
 224,
*Nset, nset=_PickedSet171, internal, instance=Airfoil-1
 225,
*Nset, nset=_PickedSet172, internal, instance=Airfoil-1
 227,
*Nset, nset=_PickedSet173, internal, instance=Airfoil-1
 698,
*Nset, nset=_PickedSet174, internal, instance=Airfoil-1
 230,
*Nset, nset=_PickedSet175, internal, instance=Airfoil-1
 231,
*Nset, nset=_PickedSet176, internal, instance=Airfoil-1
 233,
*Nset, nset=_PickedSet177, internal, instance=Airfoil-1
 234,
*Nset, nset=_PickedSet178, internal, instance=Airfoil-1
 702,
*Nset, nset=_PickedSet179, internal, instance=Airfoil-1
 237,
*Nset, nset=_PickedSet180, internal, instance=Airfoil-1
 704,
*Nset, nset=_PickedSet181, internal, instance=Airfoil-1
 240,
*Nset, nset=_PickedSet182, internal, instance=Airfoil-1
 241,
*Nset, nset=_PickedSet183, internal, instance=Airfoil-1
 706,
*Nset, nset=_PickedSet184, internal, instance=Airfoil-1
 244,
*Nset, nset=_PickedSet185, internal, instance=Airfoil-1
 246,
*Nset, nset=_PickedSet186, internal, instance=Airfoil-1
 247,
*Nset, nset=_PickedSet187, internal, instance=Airfoil-1
 248,
*Nset, nset=_PickedSet188, internal, instance=Airfoil-1
 710,
*Nset, nset=_PickedSet189, internal, instance=Airfoil-1
 251,
*Nset, nset=_PickedSet190, internal, instance=Airfoil-1
 252,
*Nset, nset=_PickedSet191, internal, instance=Airfoil-1
 254,
*Nset, nset=_PickedSet192, internal, instance=Airfoil-1
 255,
*Nset, nset=_PickedSet193, internal, instance=Airfoil-1
 714,
*Nset, nset=_PickedSet194, internal, instance=Airfoil-1
 258,
*Nset, nset=_PickedSet195, internal, instance=Airfoil-1
 716,
*Nset, nset=_PickedSet196, internal, instance=Airfoil-1
 263,
*Nset, nset=_PickedSet197, internal, instance=Airfoil-1
 263,
*Nset, nset=_PickedSet198, internal, instance=Airfoil-1
 264,
*Nset, nset=_PickedSet199, internal, instance=Airfoil-1, generate
    1,  1894,     1
*Elset, elset=_PickedSet199, internal, instance=Airfoil-1, generate
    1,  1704,     1
*End Assembly
** 
** MATERIALS
** 
*Material, name=Material-Airfoil
*Density
2700.,
*Elastic
 7e+10, 0.33
** ----------------------------------------------------------------
** 
** STEP: Step-1
** 
*Step, name=Step-1, nlgeom=NO
Step statico generale per analisi quasi-statica.
*Static
1., 1., 1e-05, 1.
** 
** LOADS
** 
** Name: Force-1   Type: Concentrated force
*Cload
_PickedSet7, 2, 0.00313959
** Name: Force-2   Type: Concentrated force
*Cload
_PickedSet8, 2, -0.0257411
** Name: Force-3   Type: Concentrated force
*Cload
_PickedSet9, 2, -0.0257411
** Name: Force-4   Type: Concentrated force
*Cload
_PickedSet10, 2, 0.0148836
** Name: Force-5   Type: Concentrated force
*Cload
_PickedSet11, 2, -0.0149755
** Name: Force-6   Type: Concentrated force
*Cload
_PickedSet12, 2, -0.0417537
** Name: Force-7   Type: Concentrated force
*Cload
_PickedSet13, 2, -0.0669301
** Name: Force-8   Type: Concentrated force
*Cload
_PickedSet14, 2, -0.0914377
** Name: Force-9   Type: Concentrated force
*Cload
_PickedSet15, 2, -0.114973
** Name: Force-10   Type: Concentrated force
*Cload
_PickedSet16, 2, -0.137372
** Name: Force-11   Type: Concentrated force
*Cload
_PickedSet17, 2, -0.158614
** Name: Force-12   Type: Concentrated force
*Cload
_PickedSet18, 2, -0.178544
** Name: Force-13   Type: Concentrated force
*Cload
_PickedSet19, 2, -0.196764
** Name: Force-14   Type: Concentrated force
*Cload
_PickedSet20, 2, -0.212667
** Name: Force-15   Type: Concentrated force
*Cload
_PickedSet21, 2, -0.22624
** Name: Force-16   Type: Concentrated force
*Cload
_PickedSet22, 2, -0.237287
** Name: Force-17   Type: Concentrated force
*Cload
_PickedSet23, 2, -0.244888
** Name: Force-18   Type: Concentrated force
*Cload
_PickedSet24, 2, -0.248477
** Name: Force-19   Type: Concentrated force
*Cload
_PickedSet25, 2, -0.248248
** Name: Force-20   Type: Concentrated force
*Cload
_PickedSet26, 2, -0.245101
** Name: Force-21   Type: Concentrated force
*Cload
_PickedSet27, 2, -0.240767
** Name: Force-22   Type: Concentrated force
*Cload
_PickedSet28, 2, -0.238627
** Name: Force-23   Type: Concentrated force
*Cload
_PickedSet29, 2, -0.238262
** Name: Force-24   Type: Concentrated force
*Cload
_PickedSet30, 2, -0.239464
** Name: Force-25   Type: Concentrated force
*Cload
_PickedSet31, 2, -0.242338
** Name: Force-26   Type: Concentrated force
*Cload
_PickedSet32, 2, -0.246677
** Name: Force-27   Type: Concentrated force
*Cload
_PickedSet33, 2, -0.252133
** Name: Force-28   Type: Concentrated force
*Cload
_PickedSet34, 2, -0.259518
** Name: Force-29   Type: Concentrated force
*Cload
_PickedSet35, 2, -0.267964
** Name: Force-30   Type: Concentrated force
*Cload
_PickedSet36, 2, -0.277123
** Name: Force-31   Type: Concentrated force
*Cload
_PickedSet37, 2, -0.287246
** Name: Force-32   Type: Concentrated force
*Cload
_PickedSet38, 2, -0.297456
** Name: Force-33   Type: Concentrated force
*Cload
_PickedSet39, 2, -0.307806
** Name: Force-34   Type: Concentrated force
*Cload
_PickedSet40, 2, -0.318222
** Name: Force-35   Type: Concentrated force
*Cload
_PickedSet41, 2, -0.328664
** Name: Force-36   Type: Concentrated force
*Cload
_PickedSet42, 2, -0.339364
** Name: Force-37   Type: Concentrated force
*Cload
_PickedSet43, 2, -0.35008
** Name: Force-38   Type: Concentrated force
*Cload
_PickedSet44, 2, -0.360841
** Name: Force-39   Type: Concentrated force
*Cload
_PickedSet45, 2, -0.371385
** Name: Force-40   Type: Concentrated force
*Cload
_PickedSet46, 2, -0.38163
** Name: Force-41   Type: Concentrated force
*Cload
_PickedSet47, 2, -0.391179
** Name: Force-42   Type: Concentrated force
*Cload
_PickedSet48, 2, -0.400265
** Name: Force-43   Type: Concentrated force
*Cload
_PickedSet49, 2, -0.408449
** Name: Force-44   Type: Concentrated force
*Cload
_PickedSet50, 2, -0.416348
** Name: Force-45   Type: Concentrated force
*Cload
_PickedSet51, 2, -0.423649
** Name: Force-46   Type: Concentrated force
*Cload
_PickedSet52, 2, -0.430882
** Name: Force-47   Type: Concentrated force
*Cload
_PickedSet53, 2, -0.438068
** Name: Force-48   Type: Concentrated force
*Cload
_PickedSet54, 2, -0.445465
** Name: Force-49   Type: Concentrated force
*Cload
_PickedSet55, 2, -0.454042
** Name: Force-50   Type: Concentrated force
*Cload
_PickedSet56, 2, -0.463752
** Name: Force-51   Type: Concentrated force
*Cload
_PickedSet57, 2, -0.476244
** Name: Force-52   Type: Concentrated force
*Cload
_PickedSet58, 2, -0.490837
** Name: Force-53   Type: Concentrated force
*Cload
_PickedSet59, 2, -0.508173
** Name: Force-54   Type: Concentrated force
*Cload
_PickedSet60, 2, -0.527738
** Name: Force-55   Type: Concentrated force
*Cload
_PickedSet61, 2, -0.549138
** Name: Force-56   Type: Concentrated force
*Cload
_PickedSet62, 2, -0.572329
** Name: Force-57   Type: Concentrated force
*Cload
_PickedSet63, 2, -0.595953
** Name: Force-58   Type: Concentrated force
*Cload
_PickedSet64, 2, -0.619326
** Name: Force-59   Type: Concentrated force
*Cload
_PickedSet65, 2, -0.642125
** Name: Force-60   Type: Concentrated force
*Cload
_PickedSet66, 2, -0.660415
** Name: Force-61   Type: Concentrated force
*Cload
_PickedSet67, 2, -0.676431
** Name: Force-62   Type: Concentrated force
*Cload
_PickedSet68, 2, -0.685708
** Name: Force-63   Type: Concentrated force
*Cload
_PickedSet69, 2, -0.691176
** Name: Force-64   Type: Concentrated force
*Cload
_PickedSet70, 2, -0.692584
** Name: Force-65   Type: Concentrated force
*Cload
_PickedSet71, 2, -0.691348
** Name: Force-66   Type: Concentrated force
*Cload
_PickedSet72, 2, -0.68925
** Name: Force-67   Type: Concentrated force
*Cload
_PickedSet73, 2, -0.686788
** Name: Force-68   Type: Concentrated force
*Cload
_PickedSet74, 2, -0.685364
** Name: Force-69   Type: Concentrated force
*Cload
_PickedSet75, 2, -0.68508
** Name: Force-70   Type: Concentrated force
*Cload
_PickedSet76, 2, -0.689801
** Name: Force-71   Type: Concentrated force
*Cload
_PickedSet77, 2, -0.698546
** Name: Force-72   Type: Concentrated force
*Cload
_PickedSet78, 2, -0.712479
** Name: Force-73   Type: Concentrated force
*Cload
_PickedSet79, 2, -0.735213
** Name: Force-74   Type: Concentrated force
*Cload
_PickedSet80, 2, -0.761673
** Name: Force-75   Type: Concentrated force
*Cload
_PickedSet81, 2, -0.791458
** Name: Force-76   Type: Concentrated force
*Cload
_PickedSet82, 2, -0.823502
** Name: Force-77   Type: Concentrated force
*Cload
_PickedSet83, 2, -0.855944
** Name: Force-78   Type: Concentrated force
*Cload
_PickedSet84, 2, -0.888059
** Name: Force-79   Type: Concentrated force
*Cload
_PickedSet85, 2, -0.919305
** Name: Force-80   Type: Concentrated force
*Cload
_PickedSet86, 2, -0.949147
** Name: Force-81   Type: Concentrated force
*Cload
_PickedSet87, 2, -0.977242
** Name: Force-82   Type: Concentrated force
*Cload
_PickedSet88, 2, -1.00332
** Name: Force-83   Type: Concentrated force
*Cload
_PickedSet89, 2, -1.02699
** Name: Force-84   Type: Concentrated force
*Cload
_PickedSet90, 2, -1.04785
** Name: Force-85   Type: Concentrated force
*Cload
_PickedSet91, 2, -1.065
** Name: Force-86   Type: Concentrated force
*Cload
_PickedSet92, 2, -1.07771
** Name: Force-87   Type: Concentrated force
*Cload
_PickedSet93, 2, -1.0859
** Name: Force-88   Type: Concentrated force
*Cload
_PickedSet94, 2, -1.08975
** Name: Force-89   Type: Concentrated force
*Cload
_PickedSet95, 2, -1.08965
** Name: Force-90   Type: Concentrated force
*Cload
_PickedSet96, 2, -1.08427
** Name: Force-91   Type: Concentrated force
*Cload
_PickedSet97, 2, -1.06973
** Name: Force-92   Type: Concentrated force
*Cload
_PickedSet98, 2, -1.03763
** Name: Force-93   Type: Concentrated force
*Cload
_PickedSet99, 2, -0.984205
** Name: Force-94   Type: Concentrated force
*Cload
_PickedSet100, 2, -0.898642
** Name: Force-95   Type: Concentrated force
*Cload
_PickedSet101, 2, -0.726923
** Name: Force-96   Type: Concentrated force
*Cload
_PickedSet102, 2, 0.00170994
** Name: Force-97   Type: Concentrated force
*Cload
_PickedSet103, 2, 0.00170994
** Name: Force-98   Type: Concentrated force
*Cload
_PickedSet104, 2, 1.05428
** Name: Force-99   Type: Concentrated force
*Cload
_PickedSet105, 2, 0.972171
** Name: Force-100   Type: Concentrated force
*Cload
_PickedSet106, 2, 0.772791
** Name: Force-101   Type: Concentrated force
*Cload
_PickedSet107, 2, 0.619956
** Name: Force-102   Type: Concentrated force
*Cload
_PickedSet108, 2, 0.500725
** Name: Force-103   Type: Concentrated force
*Cload
_PickedSet109, 2, 0.403392
** Name: Force-104   Type: Concentrated force
*Cload
_PickedSet110, 2, 0.335501
** Name: Force-105   Type: Concentrated force
*Cload
_PickedSet111, 2, 0.292709
** Name: Force-106   Type: Concentrated force
*Cload
_PickedSet112, 2, 0.262352
** Name: Force-107   Type: Concentrated force
*Cload
_PickedSet113, 2, 0.240736
** Name: Force-108   Type: Concentrated force
*Cload
_PickedSet114, 2, 0.224231
** Name: Force-109   Type: Concentrated force
*Cload
_PickedSet115, 2, 0.211636
** Name: Force-110   Type: Concentrated force
*Cload
_PickedSet116, 2, 0.201546
** Name: Force-111   Type: Concentrated force
*Cload
_PickedSet117, 2, 0.193288
** Name: Force-112   Type: Concentrated force
*Cload
_PickedSet118, 2, 0.186542
** Name: Force-113   Type: Concentrated force
*Cload
_PickedSet119, 2, 0.18102
** Name: Force-114   Type: Concentrated force
*Cload
_PickedSet120, 2, 0.176355
** Name: Force-115   Type: Concentrated force
*Cload
_PickedSet121, 2, 0.172196
** Name: Force-116   Type: Concentrated force
*Cload
_PickedSet122, 2, 0.168382
** Name: Force-117   Type: Concentrated force
*Cload
_PickedSet123, 2, 0.165076
** Name: Force-118   Type: Concentrated force
*Cload
_PickedSet124, 2, 0.162237
** Name: Force-119   Type: Concentrated force
*Cload
_PickedSet125, 2, 0.15993
** Name: Force-120   Type: Concentrated force
*Cload
_PickedSet126, 2, 0.158326
** Name: Force-121   Type: Concentrated force
*Cload
_PickedSet127, 2, 0.158323
** Name: Force-122   Type: Concentrated force
*Cload
_PickedSet128, 2, 0.159391
** Name: Force-123   Type: Concentrated force
*Cload
_PickedSet129, 2, 0.161582
** Name: Force-124   Type: Concentrated force
*Cload
_PickedSet130, 2, 0.164945
** Name: Force-125   Type: Concentrated force
*Cload
_PickedSet131, 2, 0.168705
** Name: Force-126   Type: Concentrated force
*Cload
_PickedSet132, 2, 0.172966
** Name: Force-127   Type: Concentrated force
*Cload
_PickedSet133, 2, 0.177507
** Name: Force-128   Type: Concentrated force
*Cload
_PickedSet134, 2, 0.18208
** Name: Force-129   Type: Concentrated force
*Cload
_PickedSet135, 2, 0.186403
** Name: Force-130   Type: Concentrated force
*Cload
_PickedSet136, 2, 0.19012
** Name: Force-131   Type: Concentrated force
*Cload
_PickedSet137, 2, 0.193145
** Name: Force-132   Type: Concentrated force
*Cload
_PickedSet138, 2, 0.194487
** Name: Force-133   Type: Concentrated force
*Cload
_PickedSet139, 2, 0.195243
** Name: Force-134   Type: Concentrated force
*Cload
_PickedSet140, 2, 0.194282
** Name: Force-135   Type: Concentrated force
*Cload
_PickedSet141, 2, 0.193174
** Name: Force-136   Type: Concentrated force
*Cload
_PickedSet142, 2, 0.191563
** Name: Force-137   Type: Concentrated force
*Cload
_PickedSet143, 2, 0.189967
** Name: Force-138   Type: Concentrated force
*Cload
_PickedSet144, 2, 0.188394
** Name: Force-139   Type: Concentrated force
*Cload
_PickedSet145, 2, 0.187028
** Name: Force-140   Type: Concentrated force
*Cload
_PickedSet146, 2, 0.185876
** Name: Force-141   Type: Concentrated force
*Cload
_PickedSet147, 2, 0.185293
** Name: Force-142   Type: Concentrated force
*Cload
_PickedSet148, 2, 0.185051
** Name: Force-143   Type: Concentrated force
*Cload
_PickedSet149, 2, 0.185646
** Name: Force-144   Type: Concentrated force
*Cload
_PickedSet150, 2, 0.186527
** Name: Force-145   Type: Concentrated force
*Cload
_PickedSet151, 2, 0.187873
** Name: Force-146   Type: Concentrated force
*Cload
_PickedSet152, 2, 0.189291
** Name: Force-147   Type: Concentrated force
*Cload
_PickedSet153, 2, 0.190581
** Name: Force-148   Type: Concentrated force
*Cload
_PickedSet154, 2, 0.191848
** Name: Force-149   Type: Concentrated force
*Cload
_PickedSet155, 2, 0.192919
** Name: Force-150   Type: Concentrated force
*Cload
_PickedSet156, 2, 0.193925
** Name: Force-151   Type: Concentrated force
*Cload
_PickedSet157, 2, 0.194704
** Name: Force-152   Type: Concentrated force
*Cload
_PickedSet158, 2, 0.195262
** Name: Force-153   Type: Concentrated force
*Cload
_PickedSet159, 2, 0.195412
** Name: Force-154   Type: Concentrated force
*Cload
_PickedSet160, 2, 0.195339
** Name: Force-155   Type: Concentrated force
*Cload
_PickedSet161, 2, 0.195043
** Name: Force-156   Type: Concentrated force
*Cload
_PickedSet162, 2, 0.194628
** Name: Force-157   Type: Concentrated force
*Cload
_PickedSet163, 2, 0.194152
** Name: Force-158   Type: Concentrated force
*Cload
_PickedSet164, 2, 0.193459
** Name: Force-159   Type: Concentrated force
*Cload
_PickedSet165, 2, 0.192712
** Name: Force-160   Type: Concentrated force
*Cload
_PickedSet166, 2, 0.191784
** Name: Force-161   Type: Concentrated force
*Cload
_PickedSet167, 2, 0.190788
** Name: Force-162   Type: Concentrated force
*Cload
_PickedSet168, 2, 0.189676
** Name: Force-163   Type: Concentrated force
*Cload
_PickedSet169, 2, 0.188524
** Name: Force-164   Type: Concentrated force
*Cload
_PickedSet170, 2, 0.18737
** Name: Force-165   Type: Concentrated force
*Cload
_PickedSet171, 2, 0.186608
** Name: Force-166   Type: Concentrated force
*Cload
_PickedSet172, 2, 0.18628
** Name: Force-167   Type: Concentrated force
*Cload
_PickedSet173, 2, 0.186516
** Name: Force-168   Type: Concentrated force
*Cload
_PickedSet174, 2, 0.187825
** Name: Force-169   Type: Concentrated force
*Cload
_PickedSet175, 2, 0.189712
** Name: Force-170   Type: Concentrated force
*Cload
_PickedSet176, 2, 0.192279
** Name: Force-171   Type: Concentrated force
*Cload
_PickedSet177, 2, 0.196647
** Name: Force-172   Type: Concentrated force
*Cload
_PickedSet178, 2, 0.202351
** Name: Force-173   Type: Concentrated force
*Cload
_PickedSet179, 2, 0.209089
** Name: Force-174   Type: Concentrated force
*Cload
_PickedSet180, 2, 0.215925
** Name: Force-175   Type: Concentrated force
*Cload
_PickedSet181, 2, 0.220769
** Name: Force-176   Type: Concentrated force
*Cload
_PickedSet182, 2, 0.223411
** Name: Force-177   Type: Concentrated force
*Cload
_PickedSet183, 2, 0.223908
** Name: Force-178   Type: Concentrated force
*Cload
_PickedSet184, 2, 0.222633
** Name: Force-179   Type: Concentrated force
*Cload
_PickedSet185, 2, 0.219988
** Name: Force-180   Type: Concentrated force
*Cload
_PickedSet186, 2, 0.216012
** Name: Force-181   Type: Concentrated force
*Cload
_PickedSet187, 2, 0.210802
** Name: Force-182   Type: Concentrated force
*Cload
_PickedSet188, 2, 0.204625
** Name: Force-183   Type: Concentrated force
*Cload
_PickedSet189, 2, 0.197695
** Name: Force-184   Type: Concentrated force
*Cload
_PickedSet190, 2, 0.18993
** Name: Force-185   Type: Concentrated force
*Cload
_PickedSet191, 2, 0.181297
** Name: Force-186   Type: Concentrated force
*Cload
_PickedSet192, 2, 0.170878
** Name: Force-187   Type: Concentrated force
*Cload
_PickedSet193, 2, 0.158339
** Name: Force-188   Type: Concentrated force
*Cload
_PickedSet194, 2, 0.144544
** Name: Force-189   Type: Concentrated force
*Cload
_PickedSet195, 2, 0.126714
** Name: Force-190   Type: Concentrated force
*Cload
_PickedSet196, 2, -0.027126
** Name: Force-191   Type: Concentrated force
*Cload
_PickedSet197, 2, -0.027126
** Name: Force-192   Type: Concentrated force
*Cload
_PickedSet198, 2, 0.00313959
** 
** OUTPUT REQUESTS
** 
*Restart, write, frequency=0
** 
** FIELD OUTPUT: F-Output-1
** 
*Output, field, variable=PRESELECT
** 
** HISTORY OUTPUT: H-Output-1
** 
*Output, history, variable=PRESELECT
*End Step
